%nprocshared=16
%mem=2GB
%chk=/home/sortiz/COSAN-scan/COSAN_2.chk
# wb97x/6-31g(d)

COSAN rotatamer scan 2 out of 2

 -1   1
C                -0.3730000000       -1.3870000000        1.5540000000
B                 0.4580000000       -1.4930000000        3.0350000000
B                 1.3100000000        0.0610000000        3.1450000000
B                 0.0800000000        1.3550000000        3.1490000000
B                -0.2430000000       -0.1870000000        4.0240000000
B                -1.2830000000       -1.1680000000        2.9890000000
C                -1.4750000000       -0.2350000000        1.5640000000
B                 1.2000000000       -0.7700000000        1.5790000000
B                 0.9900000000        0.9980000000        1.6360000000
B                -0.7790000000        1.2970000000        1.5900000000
B                -1.5220000000        0.5840000000        3.0510000000
C                 1.1430000000        0.9240000000       -1.5530000000
B                 1.6410000000        0.2360000000       -3.0300000000
B                 0.6990000000       -1.2690000000       -3.1290000000
B                -1.0280000000       -0.8280000000       -3.1380000000
B                 0.1630000000        0.1990000000       -4.0200000000
B                 0.5080000000        1.5970000000       -2.9970000000
C                -0.4000000000        1.3230000000       -1.5680000000
B                 1.3660000000       -0.7490000000       -1.5690000000
B                -0.2750000000       -1.4330000000       -1.6150000000
B                -1.3920000000       -0.0340000000       -1.5880000000
B                -1.1360000000        0.9470000000       -3.0560000000
Co                0.0000000000        0.0000000000        0.0000000000
H                -0.6490000000       -2.3270000000        1.0670000000
H                 0.8190000000       -2.5540000000        3.4190000000
H                 2.3430000000        0.1540000000        3.7330000000
H                 0.2290000000        2.3810000000        3.7360000000
H                -0.3170000000       -0.2660000000        5.2070000000
H                -2.1110000000       -1.9630000000        3.2640000000
H                -2.4280000000       -0.4570000000        1.0750000000
H                 2.0810000000       -1.4040000000        1.1000000000
H                 1.8090000000        1.7870000000        1.2770000000
H                -1.3580000000        2.2240000000        1.1310000000
H                -2.5580000000        0.9980000000        3.4520000000
H                 1.8300000000        1.6250000000       -1.0690000000
H                 2.7450000000        0.4340000000       -3.4130000000
H                 1.1270000000       -2.2210000000       -3.7050000000
H                -1.8520000000       -1.4610000000       -3.7210000000
H                 0.1950000000        0.2920000000       -5.2050000000
H                 0.7970000000        2.7050000000       -3.2830000000
H                -0.6740000000        2.2670000000       -1.0900000000
H                 2.3480000000       -1.2010000000       -1.0820000000
H                -0.5570000000       -2.5310000000       -1.2470000000
H                -2.4870000000        0.0270000000       -1.1380000000
H                -2.0040000000        1.6440000000       -3.4620000000


