%chk=water_DFT_wb97xd_6-31d.chk
# opt freq wb97xd/6-31g(d) geom=connectivity

Title Card Required

0 1
 O                 -2.43002550    1.51399489    0.00000000
 H                 -1.47002550    1.51399489    0.00000000
 H                 -2.75048009    2.41893072    0.00000000

 1 2 1.0 3 1.0
 2
 3

