22
Properties=species:S:1:pos:R:3:initial_charges:R:1 pbc="F F F"
C       -0.72340000       0.00030000      -0.00010000       0.00000000
C        0.72340000      -0.00020000      -0.00010000       0.00000000
C       -1.42060000      -0.95860000       0.73490000      -0.15000000
C        1.42072288       1.09037195      -0.51953446      -0.15000000
C       -1.42100000       0.95880000      -0.73500000      -0.15000000
C        1.42097693      -1.09111195       0.51866736      -0.15000000
C       -2.81540000      -0.95880000       0.73500000      -0.15000000
C        2.81562274       1.09024839      -0.52025772      -0.15000000
C       -2.81590000       0.95860000      -0.73490000      -0.15000000
C        2.81577681      -1.09125631       0.51804194      -0.15000000
C       -3.51320000      -0.00020000       0.00010000      -0.15000000
C        3.51309972      -0.00070519      -0.00129471      -0.15000000
H       -0.89230000      -1.71300000       1.31310000       0.15000000
H        0.89261967       1.94884257      -0.92794155       0.15000000
H       -0.89310000       1.71340000      -1.31340000       0.15000000
H        0.89288021      -1.94939139       0.92741062       0.15000000
H       -3.35840000      -1.70540000       1.30720000       0.15000000
H        3.35871836       1.93923303      -0.92474776       0.15000000
H       -3.35930000       1.70490000      -1.30700000       0.15000000
H        3.35908097      -1.94069216       0.92192750       0.15000000
H       -4.59920000      -0.00040000       0.00020000       0.15000000
H        4.59919960      -0.00086289      -0.00183661       0.15000000
