22
Properties=species:S:1:pos:R:3:initial_charges:R:1 pbc="F F F"
C       -0.72340000       0.00030000      -0.00010000       0.00000000
C        0.72340000      -0.00020000      -0.00010000       0.00000000
C       -1.42060000      -0.95860000       0.73490000      -0.15000000
C        1.42029167      -0.15737266      -1.19803876      -0.15000000
C       -1.42100000       0.95880000      -0.73500000      -0.15000000
C        1.42140789       0.15590005       1.19749751      -0.15000000
C       -2.81540000      -0.95880000       0.73500000      -0.15000000
C        2.81519120      -0.15843180      -1.19860322      -0.15000000
C       -2.81590000       0.95860000      -0.73490000      -0.15000000
C        2.81620748       0.15492756       1.19698310      -0.15000000
C       -3.51320000      -0.00020000       0.00010000      -0.15000000
C        3.51309922      -0.00215852      -0.00090563      -0.15000000
H       -0.89230000      -1.71300000       1.31310000       0.15000000
H        0.89184927      -0.28038267      -2.14052395       0.15000000
H       -0.89310000       1.71340000      -1.31340000       0.15000000
H        0.89365050       0.27954107       2.14025190       0.15000000
H       -3.35840000      -1.70540000       1.30720000       0.15000000
H        3.35795110      -0.28090361      -2.13120835       0.15000000
H       -3.35930000       1.70490000      -1.30700000       0.15000000
H        3.35984718       0.27642560       2.12947349       0.15000000
H       -4.59920000      -0.00040000       0.00020000       0.15000000
H        4.59919887      -0.00298199      -0.00128008       0.15000000
