22
Properties=species:S:1:pos:R:3:initial_charges:R:1 pbc="F F F"
C       -0.72340000       0.00030000      -0.00010000       0.00000000
C        0.72340000      -0.00020000      -0.00010000       0.00000000
C       -1.42060000      -0.95860000       0.73490000      -0.15000000
C        1.41994564      -1.15864222      -0.34398124      -0.15000000
C       -1.42100000       0.95880000      -0.73500000      -0.15000000
C        1.42175393       1.15720821       0.34418194      -0.15000000
C       -2.81540000      -0.95880000       0.73500000      -0.15000000
C        2.81484512      -1.15987466      -0.34368365      -0.15000000
C       -2.81590000       0.95860000      -0.73490000      -0.15000000
C        2.81655346       1.15605676       0.34442077      -0.15000000
C       -3.51320000      -0.00020000       0.00010000      -0.15000000
C        3.51309917      -0.00230454       0.00048078      -0.15000000
H       -0.89230000      -1.71300000       1.31310000       0.15000000
H        0.89123095      -2.06956958      -0.61478244       0.15000000
H       -0.89310000       1.71340000      -1.31340000       0.15000000
H        0.89426887       2.06885470       0.61484963       0.15000000
H       -3.35840000      -1.70540000       1.30720000       0.15000000
H        3.35733565      -2.06177685      -0.61129613       0.15000000
H       -3.35930000       1.70490000      -1.30700000       0.15000000
H        3.36046261       2.05723532       0.61253316       0.15000000
H       -4.59920000      -0.00040000       0.00020000       0.15000000
H        4.59919879      -0.00320423       0.00073786       0.15000000
