22
Properties=species:S:1:pos:R:3:initial_charges:R:1 pbc="F F F"
C       -0.72340000       0.00030000      -0.00010000       0.00000000
C        0.72340000      -0.00020000      -0.00010000       0.00000000
C       -1.42060000      -0.95860000       0.73490000      -0.15000000
C        1.42010366      -0.70140157      -0.98414212      -0.15000000
C       -1.42100000       0.95880000      -0.73500000      -0.15000000
C        1.42159587       0.69983787       0.98391806      -0.15000000
C       -2.81540000      -0.95880000       0.73500000      -0.15000000
C        2.81500312      -0.70265815      -0.98436959      -0.15000000
C       -2.81590000       0.95860000      -0.73490000      -0.15000000
C        2.81639540       0.69868129       0.98369412      -0.15000000
C       -3.51320000      -0.00020000       0.00010000      -0.15000000
C        3.51309913      -0.00242034      -0.00034447      -0.15000000
H       -0.89230000      -1.71300000       1.31310000       0.15000000
H        0.89151333      -1.25246155      -1.75847171       0.15000000
H       -0.89310000       1.71340000      -1.31340000       0.15000000
H        0.89398645       1.25162412       1.75836047       0.15000000
H       -3.35840000      -1.70540000       1.30720000       0.15000000
H        3.35761665      -1.24864786      -1.75040208       0.15000000
H       -3.35930000       1.70490000      -1.30700000       0.15000000
H        3.36018147       1.24371340       1.74990619       0.15000000
H       -4.59920000      -0.00040000       0.00020000       0.15000000
H        4.59919873      -0.00336715      -0.00046471       0.15000000
