22
Properties=species:S:1:pos:R:3:initial_charges:R:1 pbc="F F F"
C       -0.72340000       0.00030000      -0.00010000       0.00000000
C        0.72340000      -0.00020000      -0.00010000       0.00000000
C       -1.42060000      -0.95860000       0.73490000      -0.15000000
C        1.42053245       0.53933559      -1.08099140      -0.15000000
C       -1.42100000       0.95880000      -0.73500000      -0.15000000
C        1.42116721      -0.54051642       1.08017825      -0.15000000
C       -2.81540000      -0.95880000       0.73500000      -0.15000000
C        2.81543212       0.53869075      -1.08178205      -0.15000000
C       -2.81590000       0.95860000      -0.73490000      -0.15000000
C        2.81596693      -0.54111741       1.07947753      -0.15000000
C       -3.51320000      -0.00020000       0.00010000      -0.15000000
C        3.51309943      -0.00153801      -0.00132398      -0.15000000
H       -0.89230000      -1.71300000       1.31310000       0.15000000
H        0.89227946       0.96441789      -1.93123547       0.15000000
H       -0.89310000       1.71340000      -1.31340000       0.15000000
H        0.89322035      -0.96516372       1.93079426       0.15000000
H       -3.35840000      -1.70540000       1.30720000       0.15000000
H        3.35837947       0.95863110      -1.92332722       0.15000000
H       -3.35930000       1.70490000      -1.30700000       0.15000000
H        3.35941924      -0.96186505       1.92059300       0.15000000
H       -4.59920000      -0.00040000       0.00020000       0.15000000
H        4.59919918      -0.00207548      -0.00188499       0.15000000
