22
Properties=species:S:1:pos:R:3:initial_charges:R:1 pbc="F F F"
C       -0.72340000       0.00030000      -0.00010000       0.00000000
C        0.72340000      -0.00020000      -0.00010000       0.00000000
C       -1.42060000      -0.95860000       0.73490000      -0.15000000
C        1.42032068      -0.07342641      -1.20606765      -0.15000000
C       -1.42100000       0.95880000      -0.73500000      -0.15000000
C        1.42137888       0.07197903       1.20548603      -0.15000000
C       -2.81540000      -0.95880000       0.73500000      -0.15000000
C        2.81522023      -0.07444476      -1.20667099      -0.15000000
C       -2.81590000       0.95860000      -0.73490000      -0.15000000
C        2.81617849       0.07104362       1.20493867      -0.15000000
C       -3.51320000      -0.00020000       0.00010000      -0.15000000
C        3.51309924      -0.00209990      -0.00097304      -0.15000000
H       -0.89230000      -1.71300000       1.31310000       0.15000000
H        0.89190111      -0.13039189      -2.15485048       0.15000000
H       -0.89310000       1.71340000      -1.31340000       0.15000000
H        0.89359867       0.12955610       2.15455597       0.15000000
H       -3.35840000      -1.70540000       1.30720000       0.15000000
H        3.35800271      -0.13156345      -2.14553446       0.15000000
H       -3.35930000       1.70490000      -1.30700000       0.15000000
H        3.35979561       0.12719801       2.14364593       0.15000000
H       -4.59920000      -0.00040000       0.00020000       0.15000000
H        4.59919890      -0.00289616      -0.00137783       0.15000000
