22
Properties=species:S:1:pos:R:3:initial_charges:R:1 pbc="F F F"
C       -0.72340000       0.00030000      -0.00010000       0.00000000
C        0.72340000      -0.00020000      -0.00010000       0.00000000
C       -1.42060000      -0.95860000       0.73490000      -0.15000000
C        1.41992968      -1.20482967      -0.09566299      -0.15000000
C       -1.42100000       0.95880000      -0.73500000      -0.15000000
C        1.42176992       1.20349103       0.09596969      -0.15000000
C       -2.81540000      -0.95880000       0.73500000      -0.15000000
C        2.81482918      -1.20598384      -0.09521589      -0.15000000
C       -2.81590000       0.95860000      -0.73490000      -0.15000000
C        2.81656948       1.20240386       0.09634248      -0.15000000
C       -3.51320000      -0.00020000       0.00010000      -0.15000000
C        3.51309922      -0.00215887       0.00070520      -0.15000000
H       -0.89230000      -1.71300000       1.31310000       0.15000000
H        0.89120241      -2.15214982      -0.17111611       0.15000000
H       -0.89310000       1.71340000      -1.31340000       0.15000000
H        0.89429743       2.15149482       0.17121859       0.15000000
H       -3.35840000      -1.70540000       1.30720000       0.15000000
H        3.35730729      -2.14382116      -0.16950338       0.15000000
H       -3.35930000       1.70490000      -1.30700000       0.15000000
H        3.36049109       2.13962910       0.17119135       0.15000000
H       -4.59920000      -0.00040000       0.00020000       0.15000000
H        4.59919886      -0.00299365       0.00106568       0.15000000
