22
Properties=species:S:1:pos:R:3:initial_charges:R:1 pbc="F F F"
C       -0.72340000       0.00030000      -0.00010000       0.00000000
C        0.72340000      -0.00020000      -0.00010000       0.00000000
C       -1.42060000      -0.95860000       0.73490000      -0.15000000
C        1.42054537       0.57672934      -1.06149502      -0.15000000
C       -1.42100000       0.95880000      -0.73500000      -0.15000000
C        1.42115430      -0.57788859       1.06067182      -0.15000000
C       -2.81540000      -0.95880000       0.73500000      -0.15000000
C        2.81544506       0.57611219      -1.06229087      -0.15000000
C       -2.81590000       0.95860000      -0.73490000      -0.15000000
C        2.81595403      -0.57846505       1.05996737      -0.15000000
C       -3.51320000      -0.00020000       0.00010000      -0.15000000
C        3.51309945      -0.00149507      -0.00133628      -0.15000000
H       -0.89230000      -1.71300000       1.31310000       0.15000000
H        0.89230255       1.03122589      -1.89639237       0.15000000
H       -0.89310000       1.71340000      -1.31340000       0.15000000
H        0.89319726      -1.03196316       1.89594331       0.15000000
H       -3.35840000      -1.70540000       1.30720000       0.15000000
H        3.35840246       1.02516611      -1.88866114       0.15000000
H       -3.35930000       1.70490000      -1.30700000       0.15000000
H        3.35939628      -1.02831100       1.88589313       0.15000000
H       -4.59920000      -0.00040000       0.00020000       0.15000000
H        4.59919920      -0.00201286      -0.00190261       0.15000000
