22
Properties=species:S:1:pos:R:3:initial_charges:R:1 pbc="F F F"
C       -0.72340000       0.00030000      -0.00010000       0.00000000
C        0.72340000      -0.00020000      -0.00010000       0.00000000
C       -1.42060000      -0.95860000       0.73490000      -0.15000000
C        1.42014644      -0.57761105       1.06129502      -0.15000000
C       -1.42100000       0.95880000      -0.73500000      -0.15000000
C        1.42155342       0.57700617      -1.06087182      -0.15000000
C       -2.81540000      -0.95880000       0.73500000      -0.15000000
C        2.81504622      -0.57795804       1.06209087      -0.15000000
C       -2.81590000       0.95860000      -0.73490000      -0.15000000
C        2.81635321       0.57661857      -1.06016737      -0.15000000
C       -3.51320000      -0.00020000       0.00010000      -0.15000000
C        3.51309968      -0.00083312       0.00113628      -0.15000000
H       -0.89230000      -1.71300000       1.31310000       0.15000000
H        0.89158961      -1.03174238       1.89619237       0.15000000
H       -0.89310000       1.71340000      -1.31340000       0.15000000
H        0.89391036       1.03144555      -1.89614331       0.15000000
H       -3.35840000      -1.70540000       1.30720000       0.15000000
H        3.35769312      -1.02738712       1.88846114       0.15000000
H       -3.35930000       1.70490000      -1.30700000       0.15000000
H        3.36010626       1.02608881      -1.88609313       0.15000000
H       -4.59920000      -0.00040000       0.00020000       0.15000000
H        4.59919953      -0.00106602       0.00170261       0.15000000
