22
Properties=species:S:1:pos:R:3:initial_charges:R:1 pbc="F F F"
C       -0.72340000       0.00030000      -0.00010000       0.00000000
C        0.72340000      -0.00020000      -0.00010000       0.00000000
C       -1.42060000      -0.95860000       0.73490000      -0.15000000
C        1.41992839      -1.20856198      -0.01141629      -0.15000000
C       -1.42100000       0.95880000      -0.73500000      -0.15000000
C        1.42177123       1.20725979       0.01175360      -0.15000000
C       -2.81540000      -0.95880000       0.73500000      -0.15000000
C        2.81482790      -1.20968332      -0.01092339      -0.15000000
C       -2.81590000       0.95860000      -0.73490000      -0.15000000
C        2.81657079       1.20620010       0.01216769      -0.15000000
C       -3.51320000      -0.00020000       0.00010000      -0.15000000
C        3.51309924      -0.00210028       0.00077263      -0.15000000
H       -0.89230000      -1.71300000       1.31310000       0.15000000
H        0.89120010      -2.15883740      -0.02059115       0.15000000
H       -0.89310000       1.71340000      -1.31340000       0.15000000
H        0.89429975       2.15820383       0.02070251       0.15000000
H       -3.35840000      -1.70540000       1.30720000       0.15000000
H        3.35730501      -2.15041861      -0.01962277       0.15000000
H       -3.35930000       1.70490000      -1.30700000       0.15000000
H        3.36049341       2.14636304       0.02144360       0.15000000
H       -4.59920000      -0.00040000       0.00020000       0.15000000
H        4.59919889      -0.00290879       0.00116428       0.15000000
