22
Properties=species:S:1:pos:R:3:initial_charges:R:1 pbc="F F F"
C       -0.72340000       0.00030000      -0.00010000       0.00000000
C        0.72340000      -0.00020000      -0.00010000       0.00000000
C       -1.42060000      -0.95860000       0.73490000      -0.15000000
C        1.42071945       1.08045048       0.53967648      -0.15000000
C       -1.42100000       0.95880000      -0.73500000      -0.15000000
C        1.42098052      -1.08071939      -0.54017525      -0.15000000
C       -2.81540000      -0.95880000       0.73500000      -0.15000000
C        2.81561946       1.08075907       0.53951371      -0.15000000
C       -2.81590000       0.95860000      -0.73490000      -0.15000000
C        2.81578053      -1.08050070      -0.54029420      -0.15000000
C       -3.51320000      -0.00020000       0.00010000      -0.15000000
C        3.51309999       0.00005988      -0.00047392      -0.15000000
H       -0.89230000      -1.71300000       1.31310000       0.15000000
H        0.89261346       1.93087711       0.96457620       0.15000000
H       -0.89310000       1.71340000      -1.31340000       0.15000000
H        0.89288651      -1.93115295      -0.96500497       0.15000000
H       -3.35840000      -1.70540000       1.30720000       0.15000000
H        3.35871244       1.92211660       0.95964166       0.15000000
H       -3.35930000       1.70490000      -1.30700000       0.15000000
H        3.35908750      -1.92180398      -0.96085401       0.15000000
H       -4.59920000      -0.00040000       0.00020000       0.15000000
H        4.59919998       0.00024555      -0.00063604       0.15000000
