22
Properties=species:S:1:pos:R:3:initial_charges:R:1 pbc="F F F"
C       -0.72340000       0.00030000      -0.00010000       0.00000000
C        0.72340000      -0.00020000      -0.00010000       0.00000000
C       -1.42060000      -0.95860000       0.73490000      -0.15000000
C        1.42033525      -0.03129429      -1.20788017      -0.15000000
C       -1.42100000       0.95880000      -0.73500000      -0.15000000
C        1.42136433       0.02986057       1.20727905      -0.15000000
C       -2.81540000      -0.95880000       0.73500000      -0.15000000
C        2.81523480      -0.03229126      -1.20850185      -0.15000000
C       -2.81590000       0.95860000      -0.73490000      -0.15000000
C        2.81616394       0.02894454       1.20671620      -0.15000000
C       -3.51320000      -0.00020000       0.00010000      -0.15000000
C        3.51309925      -0.00206886      -0.00100516      -0.15000000
H       -0.89230000      -1.71300000       1.31310000       0.15000000
H        0.89192712      -0.05511291      -2.15807946       0.15000000
H       -0.89310000       1.71340000      -1.31340000       0.15000000
H        0.89357266       0.05428062       2.15777388       0.15000000
H       -3.35840000      -1.70540000       1.30720000       0.15000000
H        3.35802861      -0.05660940      -2.14878026       0.15000000
H       -3.35930000       1.70490000      -1.30700000       0.15000000
H        3.35976973       0.05230420       2.14681795       0.15000000
H       -4.59920000      -0.00040000       0.00020000       0.15000000
H        4.59919891      -0.00285074      -0.00142440       0.15000000
