22
Properties=species:S:1:pos:R:3:initial_charges:R:1 pbc="F F F"
C       -0.72340000       0.00030000      -0.00010000       0.00000000
C        0.72340000      -0.00020000      -0.00010000       0.00000000
C       -1.42060000      -0.95860000       0.73490000      -0.15000000
C        1.42075776       1.19129124      -0.19874368      -0.15000000
C       -1.42100000       0.95880000      -0.73500000      -0.15000000
C        1.42094212      -1.19185287       0.19794157      -0.15000000
C       -2.81540000      -0.95880000       0.73500000      -0.15000000
C        2.81565768       1.19135315      -0.19934010      -0.15000000
C       -2.81590000       0.95860000      -0.73490000      -0.15000000
C        2.81574205      -1.19183792       0.19743346      -0.15000000
C       -3.51320000      -0.00020000       0.00010000      -0.15000000
C        3.51309983      -0.00039366      -0.00112194      -0.15000000
H       -0.89230000      -1.71300000       1.31310000       0.15000000
H        0.89268196       2.12908548      -0.35475352       0.15000000
H       -0.89310000       1.71340000      -1.31340000       0.15000000
H        0.89281795      -2.12954186       0.35422665       0.15000000
H       -3.35840000      -1.70540000       1.30720000       0.15000000
H        3.35878046       2.11893486      -0.35409728       0.15000000
H       -3.35930000       1.70490000      -1.30700000       0.15000000
H        3.35901910      -2.11970129       0.35158869       0.15000000
H       -4.59920000      -0.00040000       0.00020000       0.15000000
H        4.59919975      -0.00041043      -0.00158286       0.15000000
