22
Properties=species:S:1:pos:R:3:initial_charges:R:1 pbc="F F F"
C       -0.72340000       0.00030000      -0.00010000       0.00000000
C        0.72340000      -0.00020000      -0.00010000       0.00000000
C       -1.42060000      -0.95860000       0.73490000      -0.15000000
C        1.42052542       0.51899357       1.09071287      -0.15000000
C       -1.42100000       0.95880000      -0.73500000      -0.15000000
C        1.42117458      -0.51920853      -1.09077081      -0.15000000
C       -2.81540000      -0.95880000       0.73500000      -0.15000000
C        2.81542540       0.51923476       1.09107137      -0.15000000
C       -2.81590000       0.95860000      -0.73490000      -0.15000000
C        2.81597456      -0.51906515      -1.09043314      -0.15000000
C       -3.51320000      -0.00020000       0.00010000      -0.15000000
C        3.51309998       0.00003062       0.00035890      -0.15000000
H       -0.89230000      -1.71300000       1.31310000       0.15000000
H        0.89226673       0.92758325       1.94900093       0.15000000
H       -0.89310000       1.71340000      -1.31340000       0.15000000
H        0.89323327      -0.92776937      -1.94923270       0.15000000
H       -3.35840000      -1.70540000       1.30720000       0.15000000
H        3.35836734       0.92353720       1.94024366       0.15000000
H       -3.35930000       1.70490000      -1.30700000       0.15000000
H        3.35943262      -0.92313854      -1.93968118       0.15000000
H       -4.59920000      -0.00040000       0.00020000       0.15000000
H        4.59919996       0.00019717       0.00057655       0.15000000
