22
Properties=species:S:1:pos:R:3:initial_charges:R:1 pbc="F F F"
C       -0.72340000       0.00030000      -0.00010000       0.00000000
C        0.72340000      -0.00020000      -0.00010000       0.00000000
C       -1.42060000      -0.95860000       0.73490000      -0.15000000
C        1.42064896       0.87646970      -0.83119124      -0.15000000
C       -1.42100000       0.95880000      -0.73500000      -0.15000000
C        1.42105078      -0.87742280       0.83031289      -0.15000000
C       -2.81540000      -0.95880000       0.73500000      -0.15000000
C        2.81554873       0.87610510      -0.83198988      -0.15000000
C       -2.81590000       0.95860000      -0.73490000      -0.15000000
C        2.81585059      -0.87777695       0.82961374      -0.15000000
C       -3.51320000      -0.00020000       0.00010000      -0.15000000
C        3.51309959      -0.00109684      -0.00137805      -0.15000000
H       -0.89230000      -1.71300000       1.31310000       0.15000000
H        0.89248762       1.56672799      -1.48483506       0.15000000
H       -0.89310000       1.71340000      -1.31340000       0.15000000
H        0.89301223      -1.56737752       1.48433015       0.15000000
H       -3.35840000      -1.70540000       1.30720000       0.15000000
H        3.35858679       1.55853401      -1.47909145       0.15000000
H       -3.35930000       1.70490000      -1.30700000       0.15000000
H        3.35921224      -1.56084015       1.47616381       0.15000000
H       -4.59920000      -0.00040000       0.00020000       0.15000000
H        4.59919940      -0.00143265      -0.00196068       0.15000000
