22
Properties=species:S:1:pos:R:3:initial_charges:R:1 pbc="F F F"
C       -0.72340000       0.00030000      -0.00010000       0.00000000
C        0.72340000      -0.00020000      -0.00010000       0.00000000
C       -1.42060000      -0.95860000       0.73490000      -0.15000000
C        1.42039344       0.13709648      -1.20042010      -0.15000000
C       -1.42100000       0.95880000      -0.73500000      -0.15000000
C        1.42130616      -0.13846900       1.19974612      -0.15000000
C       -2.81540000      -0.95880000       0.73500000      -0.15000000
C        2.81529302       0.13619104      -1.20110740      -0.15000000
C       -2.81590000       0.95860000      -0.73490000      -0.15000000
C        2.81610580      -0.13930247       1.19912834      -0.15000000
C       -3.51320000      -0.00020000       0.00010000      -0.15000000
C        3.51309930      -0.00193409      -0.00112227      -0.15000000
H       -0.89230000      -1.71300000       1.31310000       0.15000000
H        0.89203110       0.24575361      -2.14471245       0.15000000
H       -0.89310000       1.71340000      -1.31340000       0.15000000
H        0.89346869      -0.24656814       2.14436402       0.15000000
H       -3.35840000      -1.70540000       1.30720000       0.15000000
H        3.35813214       0.24296919      -2.13559341       0.15000000
H       -3.35930000       1.70490000      -1.30700000       0.15000000
H        3.35966629      -0.24700885       2.13335826       0.15000000
H       -4.59920000      -0.00040000       0.00020000       0.15000000
H        4.59919898      -0.00265365      -0.00159401       0.15000000
