22
Properties=species:S:1:pos:R:3:initial_charges:R:1 pbc="F F F"
C       -0.72340000       0.00030000      -0.00010000       0.00000000
C        0.72340000      -0.00020000      -0.00010000       0.00000000
C       -1.42060000      -0.95860000       0.73490000      -0.15000000
C        1.42063875       0.84693085      -0.86128870      -0.15000000
C       -1.42100000       0.95880000      -0.73500000      -0.15000000
C        1.42106098      -0.84790758       0.86041324      -0.15000000
C       -2.81540000      -0.95880000       0.73500000      -0.15000000
C        2.81553851       0.84653830      -0.86209096      -0.15000000
C       -2.81590000       0.95860000      -0.73490000      -0.15000000
C        2.81586078      -0.84828621       0.85971006      -0.15000000
C       -3.51320000      -0.00020000       0.00010000      -0.15000000
C        3.51309957      -0.00114148      -0.00137962      -0.15000000
H       -0.89230000      -1.71300000       1.31310000       0.15000000
H        0.89246938       1.51395692      -1.53861764       0.15000000
H       -0.89310000       1.71340000      -1.31340000       0.15000000
H        0.89303046      -1.51461701       1.53811754       0.15000000
H       -3.35840000      -1.70540000       1.30720000       0.15000000
H        3.35856862       1.50596786      -1.53262130       0.15000000
H       -3.35930000       1.70490000      -1.30700000       0.15000000
H        3.35923037      -1.50836915       1.52969827       0.15000000
H       -4.59920000      -0.00040000       0.00020000       0.15000000
H        4.59919938      -0.00149765      -0.00196327       0.15000000
