22
Properties=species:S:1:pos:R:3:initial_charges:R:1 pbc="F F F"
C       -0.72340000       0.00030000      -0.00010000       0.00000000
C        0.72340000      -0.00020000      -0.00010000       0.00000000
C       -1.42060000      -0.95860000       0.73490000      -0.15000000
C        1.42075197       1.17453156      -0.28139083      -0.15000000
C       -1.42100000       0.95880000      -0.73500000      -0.15000000
C        1.42094789      -1.17513597       0.28056783      -0.15000000
C       -2.81540000      -0.95880000       0.73500000      -0.15000000
C        2.81565187       1.17455054      -0.28202374      -0.15000000
C       -2.81590000       0.95860000      -0.73490000      -0.15000000
C        2.81574782      -1.17515767       0.28002629      -0.15000000
C       -3.51320000      -0.00020000       0.00010000      -0.15000000
C        3.51309980      -0.00046682      -0.00117319      -0.15000000
H       -0.89230000      -1.71300000       1.31310000       0.15000000
H        0.89267162       2.09915913      -0.50242512       0.15000000
H       -0.89310000       1.71340000      -1.31340000       0.15000000
H        0.89282828      -2.09963846       0.50189482       0.15000000
H       -3.35840000      -1.70540000       1.30720000       0.15000000
H        3.35877014       2.08907694      -0.50112186       0.15000000
H       -3.35930000       1.70490000      -1.30700000       0.15000000
H        3.35902937      -2.09000795       0.49851739       0.15000000
H       -4.59920000      -0.00040000       0.00020000       0.15000000
H        4.59919972      -0.00051662      -0.00165800       0.15000000
