22
Properties=species:S:1:pos:R:3:initial_charges:R:1 pbc="F F F"
C       -0.72340000       0.00030000      -0.00010000       0.00000000
C        0.72340000      -0.00020000      -0.00010000       0.00000000
C       -1.42060000      -0.95860000       0.73490000      -0.15000000
C        1.41995004      -1.14593540      -0.38419241      -0.15000000
C       -1.42100000       0.95880000      -0.73500000      -0.15000000
C        1.42174953       1.14448773       0.38437360      -0.15000000
C       -2.81540000      -0.95880000       0.73500000      -0.15000000
C        2.81484950      -1.14717776      -0.38392118      -0.15000000
C       -2.81590000       0.95860000      -0.73490000      -0.15000000
C        2.81654906       1.14332835       0.38458892      -0.15000000
C       -3.51320000      -0.00020000       0.00010000      -0.15000000
C        3.51309916      -0.00232412       0.00044062      -0.15000000
H       -0.89230000      -1.71300000       1.31310000       0.15000000
H        0.89123880      -2.04685690      -0.68662592       0.15000000
H       -0.89310000       1.71340000      -1.31340000       0.15000000
H        0.89426102       2.04613282       0.68668604       0.15000000
H       -3.35840000      -1.70540000       1.30720000       0.15000000
H        3.35734345      -2.03919111      -0.68284003       0.15000000
H       -3.35930000       1.70490000      -1.30700000       0.15000000
H        3.36045479       2.03460084       0.68399522       0.15000000
H       -4.59920000      -0.00040000       0.00020000       0.15000000
H        4.59919878      -0.00323246       0.00067925       0.15000000
