22
Properties=species:S:1:pos:R:3:initial_charges:R:1 pbc="F F F"
C       -0.72340000       0.00030000      -0.00010000       0.00000000
C        0.72340000      -0.00020000      -0.00010000       0.00000000
C       -1.42060000      -0.95860000       0.73490000      -0.15000000
C        1.42076303       1.20654937       0.05337221      -0.15000000
C       -1.42100000       0.95880000      -0.73500000      -0.15000000
C        1.42093688      -1.20699282      -0.05409454      -0.15000000
C       -2.81540000      -0.95880000       0.73500000      -0.15000000
C        2.81566299       1.20672340       0.05290193      -0.15000000
C       -2.81590000       0.95860000      -0.73490000      -0.15000000
C        2.81573685      -1.20688309      -0.05448822      -0.15000000
C       -3.51320000      -0.00020000       0.00010000      -0.15000000
C        3.51309990      -0.00019802      -0.00093943      -0.15000000
H       -0.89230000      -1.71300000       1.31310000       0.15000000
H        0.89269136       2.15629082       0.09571200       0.15000000
H       -0.89310000       1.71340000      -1.31340000       0.15000000
H        0.89280857      -2.15668056      -0.09621910       0.15000000
H       -3.35840000      -1.70540000       1.30720000       0.15000000
H        3.35878988       2.14620696       0.09442065       0.15000000
H       -3.35930000       1.70490000      -1.30700000       0.15000000
H        3.35900983      -2.14652519      -0.09657624       0.15000000
H       -4.59920000      -0.00040000       0.00020000       0.15000000
H        4.59919985      -0.00012679      -0.00131572       0.15000000
