22
Properties=species:S:1:pos:R:3:initial_charges:R:1 pbc="F F F"
C       -0.72340000       0.00030000      -0.00010000       0.00000000
C        0.72340000      -0.00020000      -0.00010000       0.00000000
C       -1.42060000      -0.95860000       0.73490000      -0.15000000
C        1.42000196      -0.99569067      -0.68505442      -0.15000000
C       -1.42100000       0.95880000      -0.73500000      -0.15000000
C        1.42169758       0.99415985       0.68506495      -0.15000000
C       -2.81540000      -0.95880000       0.73500000      -0.15000000
C        2.81490141      -0.99697835      -0.68500327      -0.15000000
C       -2.81590000       0.95860000      -0.73490000      -0.15000000
C        2.81649710       0.99296736       0.68508522      -0.15000000
C       -3.51320000      -0.00020000       0.00010000      -0.15000000
C        3.51309913      -0.00242820       0.00009993      -0.15000000
H       -0.89230000      -1.71300000       1.31310000       0.15000000
H        0.89133159      -1.77834296      -1.22415015       0.15000000
H       -0.89310000       1.71340000      -1.31340000       0.15000000
H        0.89416820       1.77755520       1.22414312       0.15000000
H       -3.35840000      -1.70540000       1.30720000       0.15000000
H        3.35743577      -1.77205068      -1.21816302       0.15000000
H       -3.35930000       1.70490000      -1.30700000       0.15000000
H        3.36036237       1.76717863       1.21861282       0.15000000
H       -4.59920000      -0.00040000       0.00020000       0.15000000
H        4.59919873      -0.00338166       0.00018240       0.15000000
