22
Properties=species:S:1:pos:R:3:initial_charges:R:1 pbc="F F F"
C       -0.72340000       0.00030000      -0.00010000       0.00000000
C        0.72340000      -0.00020000      -0.00010000       0.00000000
C       -1.42060000      -0.95860000       0.73490000      -0.15000000
C        1.42069791       1.01810724       0.64970345      -0.15000000
C       -1.42100000       0.95880000      -0.73500000      -0.15000000
C        1.42100208      -1.01834829      -0.65013648      -0.15000000
C       -2.81540000      -0.95880000       0.73500000      -0.15000000
C        2.81559792       1.01842851       0.64962421      -0.15000000
C       -2.81590000       0.95860000      -0.73490000      -0.15000000
C        2.81580209      -1.01812100      -0.65018154      -0.15000000
C       -3.51320000      -0.00020000       0.00010000      -0.15000000
C        3.51310000       0.00009226      -0.00034393      -0.15000000
H       -0.89230000      -1.71300000       1.31310000       0.15000000
H        0.89257496       1.81946204       1.16115022       0.15000000
H       -0.89310000       1.71340000      -1.31340000       0.15000000
H        0.89292502      -1.81971528      -1.16155253       0.15000000
H       -3.35840000      -1.70540000       1.30720000       0.15000000
H        3.35867413       1.81126064       1.15541608       0.15000000
H       -3.35930000       1.70490000      -1.30700000       0.15000000
H        3.35912584      -1.81085609      -1.15635799       0.15000000
H       -4.59920000      -0.00040000       0.00020000       0.15000000
H        4.59920000       0.00029181      -0.00044652       0.15000000
