22
Properties=species:S:1:pos:R:3:initial_charges:R:1 pbc="F F F"
C       -0.72340000       0.00030000      -0.00010000       0.00000000
C        0.72340000      -0.00020000      -0.00010000       0.00000000
C       -1.42060000      -0.95860000       0.73490000      -0.15000000
C        1.42065880       0.90494017      -0.80008123      -0.15000000
C       -1.42100000       0.95880000      -0.73500000      -0.15000000
C        1.42104095      -0.90586956       0.79920081      -0.15000000
C       -2.81540000      -0.95880000       0.73500000      -0.15000000
C        2.81555858       0.90460337      -0.80087528      -0.15000000
C       -2.81590000       0.95860000      -0.73490000      -0.15000000
C        2.81584077      -0.90619939       0.79850654      -0.15000000
C       -3.51320000      -0.00020000       0.00010000      -0.15000000
C        3.51309960      -0.00105227      -0.00137492      -0.15000000
H       -0.89230000      -1.71300000       1.31310000       0.15000000
H        0.89250519       1.61758993      -1.42924357       0.15000000
H       -0.89310000       1.71340000      -1.31340000       0.15000000
H        0.89299465      -1.61822874       1.42873422       0.15000000
H       -3.35840000      -1.70540000       1.30720000       0.15000000
H        3.35860430       1.60919997      -1.42375967       0.15000000
H       -3.35930000       1.70490000      -1.30700000       0.15000000
H        3.35919476      -1.61141087       1.42083075       0.15000000
H       -4.59920000      -0.00040000       0.00020000       0.15000000
H        4.59919942      -0.00136778      -0.00195582       0.15000000
