22
Properties=species:S:1:pos:R:3:initial_charges:R:1 pbc="F F F"
C       -0.72340000       0.00030000      -0.00010000       0.00000000
C        0.72340000      -0.00020000      -0.00010000       0.00000000
C       -1.42060000      -0.95860000       0.73490000      -0.15000000
C        1.42040789       0.17890326      -1.19488892      -0.15000000
C       -1.42100000       0.95880000      -0.73500000      -0.15000000
C        1.42129171      -0.18025894       1.19419810      -0.15000000
C       -2.81540000      -0.95880000       0.73500000      -0.15000000
C        2.81530748       0.17802206      -1.19559057      -0.15000000
C       -2.81590000       0.95860000      -0.73490000      -0.15000000
C        2.81609136      -0.18107064       1.19356843      -0.15000000
C       -3.51320000      -0.00020000       0.00010000      -0.15000000
C        3.51309931      -0.00189794      -0.00114852      -0.15000000
H       -0.89230000      -1.71300000       1.31310000       0.15000000
H        0.89205692       0.32044964      -2.13482032       0.15000000
H       -0.89310000       1.71340000      -1.31340000       0.15000000
H        0.89344287      -0.32125880       2.13446160       0.15000000
H       -3.35840000      -1.70540000       1.30720000       0.15000000
H        3.35815785       0.31734814      -2.12577426       0.15000000
H       -3.35930000       1.70490000      -1.30700000       0.15000000
H        3.35964061      -0.32131567       2.12347691       0.15000000
H       -4.59920000      -0.00040000       0.00020000       0.15000000
H        4.59919900      -0.00260084      -0.00163198       0.15000000
