22
Properties=species:S:1:pos:R:3:initial_charges:R:1 pbc="F F F"
C       -0.72340000       0.00030000      -0.00010000       0.00000000
C        0.72340000      -0.00020000      -0.00010000       0.00000000
C       -1.42060000      -0.95860000       0.73490000      -0.15000000
C        1.42075511       1.18363271      -0.24021352      -0.15000000
C       -1.42100000       0.95880000      -0.73500000      -0.15000000
C        1.42094476      -1.18421554       0.23940060      -0.15000000
C       -2.81540000      -0.95880000       0.73500000      -0.15000000
C        2.81565502       1.18367347      -0.24082856      -0.15000000
C       -2.81590000       0.95860000      -0.73490000      -0.15000000
C        2.81574469      -1.18421863       0.23887545      -0.15000000
C       -3.51320000      -0.00020000       0.00010000      -0.15000000
C        3.51309982      -0.00042979      -0.00114821      -0.15000000
H       -0.89230000      -1.71300000       1.31310000       0.15000000
H        0.89267724       2.11541112      -0.42885050       0.15000000
H       -0.89310000       1.71340000      -1.31340000       0.15000000
H        0.89282267      -2.11587894       0.42832172       0.15000000
H       -3.35840000      -1.70540000       1.30720000       0.15000000
H        3.35877574       2.10528906      -0.42787016       0.15000000
H       -3.35930000       1.70490000      -1.30700000       0.15000000
H        3.35902379      -2.10613694       0.42531219       0.15000000
H       -4.59920000      -0.00040000       0.00020000       0.15000000
H        4.59919974      -0.00046287      -0.00162136       0.15000000
