22
Properties=species:S:1:pos:R:3:initial_charges:R:1 pbc="F F F"
C       -0.72340000       0.00030000      -0.00010000       0.00000000
C        0.72340000      -0.00020000      -0.00010000       0.00000000
C       -1.42060000      -0.95860000       0.73490000      -0.15000000
C        1.42041456       0.19820281       1.19163217      -0.15000000
C       -1.42100000       0.95880000      -0.73500000      -0.15000000
C        1.42128542      -0.19848277      -1.19151173      -0.15000000
C       -2.81540000      -0.95880000       0.73500000      -0.15000000
C        2.81531449       0.19831716       1.19217614      -0.15000000
C       -2.81590000       0.95860000      -0.73490000      -0.15000000
C        2.81608536      -0.19845668      -1.19101475      -0.15000000
C       -3.51320000      -0.00020000       0.00010000      -0.15000000
C        3.51309992      -0.00014215       0.00067043      -0.15000000
H       -0.89230000      -1.71300000       1.31310000       0.15000000
H        0.89206865       0.35439525       2.12924386       0.15000000
H       -0.89310000       1.71340000      -1.31340000       0.15000000
H        0.89343136      -0.35458543      -2.12938318       0.15000000
H       -3.35840000      -1.70540000       1.30720000       0.15000000
H        3.35817013       0.35288675       2.11994550       0.15000000
H       -3.35930000       1.70490000      -1.30700000       0.15000000
H        3.35962973      -0.35279977      -2.11869032       0.15000000
H       -4.59920000      -0.00040000       0.00020000       0.15000000
H        4.59919988      -0.00005658       0.00102901       0.15000000
