22
Properties=species:S:1:pos:R:3:initial_charges:R:1 pbc="F F F"
C       -0.72340000       0.00030000      -0.00010000       0.00000000
C        0.72340000      -0.00020000      -0.00010000       0.00000000
C       -1.42060000      -0.95860000       0.73490000      -0.15000000
C        1.42035657       0.03041257       1.20768017      -0.15000000
C       -1.42100000       0.95880000      -0.73500000      -0.15000000
C        1.42134338      -0.03074298      -1.20747905      -0.15000000
C       -2.81540000      -0.95880000       0.73500000      -0.15000000
C        2.81525648       0.03044542       1.20830185      -0.15000000
C       -2.81590000       0.95860000      -0.73490000      -0.15000000
C        2.81614330      -0.03079101      -1.20691620      -0.15000000
C       -3.51320000      -0.00020000       0.00010000      -0.15000000
C        3.51309988      -0.00025932       0.00080516      -0.15000000
H       -0.89230000      -1.71300000       1.31310000       0.15000000
H        0.89196504       0.05459641       2.15787946       0.15000000
H       -0.89310000       1.71340000      -1.31340000       0.15000000
H        0.89353496      -0.05479823      -2.15797388       0.15000000
H       -3.35840000      -1.70540000       1.30720000       0.15000000
H        3.35806697       0.05438839       2.14858026       0.15000000
H       -3.35930000       1.70490000      -1.30700000       0.15000000
H        3.35973281      -0.05452639      -2.14701795       0.15000000
H       -4.59920000      -0.00040000       0.00020000       0.15000000
H        4.59919982      -0.00022814       0.00122440       0.15000000
