22
Properties=species:S:1:pos:R:3:initial_charges:R:1 pbc="F F F"
C       -0.72340000       0.00030000      -0.00010000       0.00000000
C        0.72340000      -0.00020000      -0.00010000       0.00000000
C       -1.42060000      -0.95860000       0.73490000      -0.15000000
C        1.42006944      -0.80042204      -0.90548109      -0.15000000
C       -1.42100000       0.95880000      -0.73500000      -0.15000000
C        1.42163009       0.79885955       0.90532841      -0.15000000
C       -2.81540000      -0.95880000       0.73500000      -0.15000000
C        2.81496890      -0.80169816      -0.90562635      -0.15000000
C       -2.81590000       0.95860000      -0.73490000      -0.15000000
C        2.81642961       0.79768326       0.90517620      -0.15000000
C       -3.51320000      -0.00020000       0.00010000      -0.15000000
C        3.51309912      -0.00243902      -0.00021182      -0.15000000
H       -0.89230000      -1.71300000       1.31310000       0.15000000
H        0.89145218      -1.42940173      -1.61794828       0.15000000
H       -0.89310000       1.71340000      -1.31340000       0.15000000
H        0.89404760       1.42857533       1.61787003       0.15000000
H       -3.35840000      -1.70540000       1.30720000       0.15000000
H        3.35755579      -1.42477010      -1.61041057       0.15000000
H       -3.35930000       1.70490000      -1.30700000       0.15000000
H        3.36024233       1.41981957       1.61019987       0.15000000
H       -4.59920000      -0.00040000       0.00020000       0.15000000
H        4.59919872      -0.00339526      -0.00027166       0.15000000
