22
Properties=species:S:1:pos:R:3:initial_charges:R:1 pbc="F F F"
C       -0.72340000       0.00030000      -0.00010000       0.00000000
C        0.72340000      -0.00020000      -0.00010000       0.00000000
C       -1.42060000      -0.95860000       0.73490000      -0.15000000
C        1.42060604       0.75227013      -0.94514549      -0.15000000
C       -1.42100000       0.95880000      -0.73500000      -0.15000000
C        1.42109367      -0.75331695       0.94428362      -0.15000000
C       -2.81540000      -0.95880000       0.73500000      -0.15000000
C        2.81550577       0.75179323      -0.94595271      -0.15000000
C       -2.81590000       0.95860000      -0.73490000      -0.15000000
C        2.81589344      -0.75376964       0.94357348      -0.15000000
C       -3.51320000      -0.00020000       0.00010000      -0.15000000
C        3.51309952      -0.00127536      -0.00137497      -0.15000000
H       -0.89230000      -1.71300000       1.31310000       0.15000000
H        0.89241094       1.34484302      -1.68846807       0.15000000
H       -0.89310000       1.71340000      -1.31340000       0.15000000
H        0.89308889      -1.34553370       1.68798456       0.15000000
H       -3.35840000      -1.70540000       1.30720000       0.15000000
H        3.35851041       1.33751984      -1.68175858       0.15000000
H       -3.35930000       1.70490000      -1.30700000       0.15000000
H        3.35928849      -1.34020478       1.67886926       0.15000000
H       -4.59920000      -0.00040000       0.00020000       0.15000000
H        4.59919931      -0.00169264      -0.00195743       0.15000000
