22
Properties=species:S:1:pos:R:3:initial_charges:R:1 pbc="F F F"
C       -0.72340000       0.00030000      -0.00010000       0.00000000
C        0.72340000      -0.00020000      -0.00010000       0.00000000
C       -1.42060000      -0.95860000       0.73490000      -0.15000000
C        1.42030616      -0.11546961      -1.20278585      -0.15000000
C       -1.42100000       0.95880000      -0.73500000      -0.15000000
C        1.42139341       0.11400926       1.20222419      -0.15000000
C       -2.81540000      -0.95880000       0.73500000      -0.15000000
C        2.81520569      -0.11650869      -1.20337010      -0.15000000
C       -2.81590000       0.95860000      -0.73490000      -0.15000000
C        2.81619301       0.11305502       1.20169298      -0.15000000
C       -3.51320000      -0.00020000       0.00010000      -0.15000000
C        3.51309923      -0.00212980      -0.00093984      -0.15000000
H       -0.89230000      -1.71300000       1.31310000       0.15000000
H        0.89187515      -0.20551231      -2.14899626       0.15000000
H       -0.89310000       1.71340000      -1.31340000       0.15000000
H        0.89362463       0.20467343       2.14871293       0.15000000
H       -3.35840000      -1.70540000       1.30720000       0.15000000
H        3.35797686      -0.20635856      -2.13967478       0.15000000
H       -3.35930000       1.70490000      -1.30700000       0.15000000
H        3.35982144       0.20193550       2.13786210       0.15000000
H       -4.59920000      -0.00040000       0.00020000       0.15000000
H        4.59919888      -0.00293993      -0.00132970       0.15000000
