22
Properties=species:S:1:pos:R:3:initial_charges:R:1 pbc="F F F"
C       -0.72340000       0.00030000      -0.00010000       0.00000000
C        0.72340000      -0.00020000      -0.00010000       0.00000000
C       -1.42060000      -0.95860000       0.73490000      -0.15000000
C        1.41993985      -1.17541327       0.28119083      -0.15000000
C       -1.42100000       0.95880000      -0.73500000      -0.15000000
C        1.42175982       1.17425355      -0.28076783      -0.15000000
C       -2.81540000      -0.95880000       0.73500000      -0.15000000
C        2.81483941      -1.17639638       0.28182374      -0.15000000
C       -2.81590000       0.95860000      -0.73490000      -0.15000000
C        2.81655942       1.17331120      -0.28022629      -0.15000000
C       -3.51320000      -0.00020000       0.00010000      -0.15000000
C        3.51309932      -0.00186136       0.00097319      -0.15000000
H       -0.89230000      -1.71300000       1.31310000       0.15000000
H        0.89122054      -2.09967563       0.50222512       0.15000000
H       -0.89310000       1.71340000      -1.31340000       0.15000000
H        0.89427933       2.09912085      -0.50209482       0.15000000
H       -3.35840000      -1.70540000       1.30720000       0.15000000
H        3.35732544      -2.09129796       0.50092186       0.15000000
H       -3.35930000       1.70490000      -1.30700000       0.15000000
H        3.36047317       2.08778575      -0.49871739       0.15000000
H       -4.59920000      -0.00040000       0.00020000       0.15000000
H        4.59919901      -0.00256226       0.00145800       0.15000000
