22
Properties=species:S:1:pos:R:3:initial_charges:R:1 pbc="F F F"
C       -0.72340000       0.00030000      -0.00010000       0.00000000
C        0.72340000      -0.00020000      -0.00010000       0.00000000
C       -1.42060000      -0.95860000       0.73490000      -0.15000000
C        1.42073156       1.11547038       0.46296244      -0.15000000
C       -1.42100000       0.95880000      -0.73500000      -0.15000000
C        1.42096841      -1.11576163      -0.46350325      -0.15000000
C       -2.81540000      -0.95880000       0.73500000      -0.15000000
C        2.81563155       1.11576569       0.46274491      -0.15000000
C       -2.81590000       0.95860000      -0.73490000      -0.15000000
C        2.81576842      -1.11555294      -0.46367080      -0.15000000
C       -3.51320000      -0.00020000       0.00010000      -0.15000000
C        3.51309998       0.00003082      -0.00055839      -0.15000000
H       -0.89230000      -1.71300000       1.31310000       0.15000000
H        0.89263509       1.99346537       0.82751709       0.15000000
H       -0.89310000       1.71340000      -1.31340000       0.15000000
H        0.89286487      -1.99375775      -0.82796214       0.15000000
H       -3.35840000      -1.70540000       1.30720000       0.15000000
H        3.35873396       1.98437990       0.82314623       0.15000000
H       -3.35930000       1.70490000      -1.30700000       0.15000000
H        3.35906595      -1.98414408      -0.82453289       0.15000000
H       -4.59920000      -0.00040000       0.00020000       0.15000000
H        4.59919997       0.00020381      -0.00075925       0.15000000
