22
Properties=species:S:1:pos:R:3:initial_charges:R:1 pbc="F F F"
C       -0.72340000       0.00030000      -0.00010000       0.00000000
C        0.72340000      -0.00020000      -0.00010000       0.00000000
C       -1.42060000      -0.95860000       0.73490000      -0.15000000
C        1.42075349       1.17892713       0.26215152      -0.15000000
C       -1.42100000       0.95880000      -0.73500000      -0.15000000
C        1.42094646      -1.17928654      -0.26278974      -0.15000000
C       -2.81540000      -0.95880000       0.73500000      -0.15000000
C        2.81565347       1.17917285       0.26180230      -0.15000000
C       -2.81590000       0.95860000      -0.73490000      -0.15000000
C        2.81574645      -1.17911743      -0.26307468      -0.15000000
C       -3.51320000      -0.00020000       0.00010000      -0.15000000
C        3.51309994      -0.00006693      -0.00075892      -0.15000000
H       -0.89230000      -1.71300000       1.31310000       0.15000000
H        0.89267429       2.10689042       0.46873724       0.15000000
H       -0.89310000       1.71340000      -1.31340000       0.15000000
H        0.89282566      -2.10722877      -0.46921757       0.15000000
H       -3.35840000      -1.70540000       1.30720000       0.15000000
H        3.35877294       2.09717104       0.46586246       0.15000000
H       -3.35930000       1.70490000      -1.30700000       0.15000000
H        3.35902689      -2.09717861      -0.46765782       0.15000000
H       -4.59920000      -0.00040000       0.00020000       0.15000000
H        4.59919992       0.00006285      -0.00105195       0.15000000
