22
Properties=species:S:1:pos:R:3:initial_charges:R:1 pbc="F F F"
C       -0.72340000       0.00030000      -0.00010000       0.00000000
C        0.72340000      -0.00020000      -0.00010000       0.00000000
C       -1.42060000      -0.95860000       0.73490000      -0.15000000
C        1.41998237      -1.05236258       0.59416041      -0.15000000
C       -1.42100000       0.95880000      -0.73500000      -0.15000000
C        1.42171736       1.05138534      -0.59368502      -0.15000000
C       -2.81540000      -0.95880000       0.73500000      -0.15000000
C        2.81488200      -1.05315182       0.59490691      -0.15000000
C       -2.81590000       0.95860000      -0.73490000      -0.15000000
C        2.81651702       1.05061009      -0.59303757      -0.15000000
C       -3.51320000      -0.00020000       0.00010000      -0.15000000
C        3.51309943      -0.00153854       0.00112381      -0.15000000
H       -0.89230000      -1.71300000       1.31310000       0.15000000
H        0.89129650      -1.87988820       1.06144378       0.15000000
H       -0.89310000       1.71340000      -1.31340000       0.15000000
H        0.89420341       1.87942593      -1.06131588       0.15000000
H       -3.35840000      -1.70540000       1.30720000       0.15000000
H        3.35740115      -1.87222731       1.05764690       0.15000000
H       -3.35930000       1.70490000      -1.30700000       0.15000000
H        3.36039771       1.86942786      -1.05517983       0.15000000
H       -4.59920000      -0.00040000       0.00020000       0.15000000
H        4.59919917      -0.00209320       0.00167958       0.15000000
