22
Properties=species:S:1:pos:R:3:initial_charges:R:1 pbc="F F F"
C       -0.72340000       0.00030000      -0.00010000       0.00000000
C        0.72340000      -0.00020000      -0.00010000       0.00000000
C       -1.42060000      -0.95860000       0.73490000      -0.15000000
C        1.42074178       1.14505368       0.38399241      -0.15000000
C       -1.42100000       0.95880000      -0.73500000      -0.15000000
C        1.42095818      -1.14537014      -0.38457360      -0.15000000
C       -2.81540000      -0.95880000       0.73500000      -0.15000000
C        2.81564177       1.14533192       0.38372118      -0.15000000
C       -2.81590000       0.95860000      -0.73490000      -0.15000000
C        2.81575818      -1.14517482      -0.38478892      -0.15000000
C       -3.51320000      -0.00020000       0.00010000      -0.15000000
C        3.51309996      -0.00000407      -0.00064062      -0.15000000
H       -0.89230000      -1.71300000       1.31310000       0.15000000
H        0.89265337       2.04634040       0.68642592       0.15000000
H       -0.89310000       1.71340000      -1.31340000       0.15000000
H        0.89284660      -2.04665043      -0.68688604       0.15000000
H       -3.35840000      -1.70540000       1.30720000       0.15000000
H        3.35875213       2.03697010       0.68264003       0.15000000
H       -3.35930000       1.70490000      -1.30700000       0.15000000
H        3.35904775      -2.03682304      -0.68419522       0.15000000
H       -4.59920000      -0.00040000       0.00020000       0.15000000
H        4.59919995       0.00015358      -0.00087925       0.15000000
