22
Properties=species:S:1:pos:R:3:initial_charges:R:1 pbc="F F F"
C       -0.72340000       0.00030000      -0.00010000       0.00000000
C        0.72340000      -0.00020000      -0.00010000       0.00000000
C       -1.42060000      -0.95860000       0.73490000      -0.15000000
C        1.42061728       0.78479321      -0.91830056      -0.15000000
C       -1.42100000       0.95880000      -0.73500000      -0.15000000
C        1.42108244      -0.78581683       0.91743334      -0.15000000
C       -2.81540000      -0.95880000       0.73500000      -0.15000000
C        2.81551702       0.78434448      -0.91910710      -0.15000000
C       -2.81590000       0.95860000      -0.73490000      -0.15000000
C        2.81588222      -0.78624476       0.91672466      -0.15000000
C       -3.51320000      -0.00020000       0.00010000      -0.15000000
C        3.51309954      -0.00123080      -0.00137808      -0.15000000
H       -0.89230000      -1.71300000       1.31310000       0.15000000
H        0.89243102       1.40294681      -1.64049620       0.15000000
H       -0.89310000       1.71340000      -1.31340000       0.15000000
H        0.89306882      -1.40362749       1.64000681       0.15000000
H       -3.35840000      -1.70540000       1.30720000       0.15000000
H        3.35853041       1.39539342      -1.63401663       0.15000000
H       -3.35930000       1.70490000      -1.30700000       0.15000000
H        3.35926852      -1.39798422       1.63111277       0.15000000
H       -4.59920000      -0.00040000       0.00020000       0.15000000
H        4.59919933      -0.00162773      -0.00196165       0.15000000
