22
Properties=species:S:1:pos:R:3:initial_charges:R:1 pbc="F F F"
C       -0.72340000       0.00030000      -0.00010000       0.00000000
C        0.72340000      -0.00020000      -0.00010000       0.00000000
C       -1.42060000      -0.95860000       0.73490000      -0.15000000
C        1.42067732       0.95853858      -0.73497632      -0.15000000
C       -1.42100000       0.95880000      -0.73500000      -0.15000000
C        1.42102244      -0.95942038       0.73409426      -0.15000000
C       -2.81540000      -0.95880000       0.73500000      -0.15000000
C        2.81557712       0.95825681      -0.73575831      -0.15000000
C       -2.81590000       0.95860000      -0.73490000      -0.15000000
C        2.81582228      -0.95970215       0.73341230      -0.15000000
C       -3.51320000      -0.00020000       0.00010000      -0.15000000
C        3.51309963      -0.00096361      -0.00136402      -0.15000000
H       -0.89230000      -1.71300000       1.31310000       0.15000000
H        0.89253828       1.71334094      -1.31290686       0.15000000
H       -0.89310000       1.71340000      -1.31340000       0.15000000
H        0.89296157      -1.71395787       1.31238977       0.15000000
H       -3.35840000      -1.70540000       1.30720000       0.15000000
H        3.35863726       1.70458680      -1.30796212       0.15000000
H       -3.35930000       1.70490000      -1.30700000       0.15000000
H        3.35916187      -1.70660737       1.30504059       0.15000000
H       -4.59920000      -0.00040000       0.00020000       0.15000000
H        4.59919947      -0.00123874      -0.00193932       0.15000000
