22
Properties=species:S:1:pos:R:3:initial_charges:R:1 pbc="F F F"
C       -0.72340000       0.00030000      -0.00010000       0.00000000
C        0.72340000      -0.00020000      -0.00010000       0.00000000
C       -1.42060000      -0.95860000       0.73490000      -0.15000000
C        1.42047865       0.38365153      -1.14559461      -0.15000000
C       -1.42100000       0.95880000      -0.73500000      -0.15000000
C        1.42122099      -0.38491478       1.14482901      -0.15000000
C       -2.81540000      -0.95880000       0.73500000      -0.15000000
C        2.81537828       0.38289823      -1.14635491      -0.15000000
C       -2.81590000       0.95860000      -0.73490000      -0.15000000
C        2.81602068      -0.38561213       1.14415166      -0.15000000
C       -3.51320000      -0.00020000       0.00010000      -0.15000000
C        3.51309938      -0.00170472      -0.00126002      -0.15000000
H       -0.89230000      -1.71300000       1.31310000       0.15000000
H        0.89218334       0.68626763      -2.04669877       0.15000000
H       -0.89310000       1.71340000      -1.31340000       0.15000000
H        0.89331646      -0.68704480       2.04629175       0.15000000
H       -3.35840000      -1.70540000       1.30720000       0.15000000
H        3.35828374       0.68162948      -2.03818073       0.15000000
H       -3.35930000       1.70490000      -1.30700000       0.15000000
H        3.35951485      -0.68520628       2.03561206       0.15000000
H       -4.59920000      -0.00040000       0.00020000       0.15000000
H        4.59919910      -0.00231868      -0.00179302       0.15000000
