22
Properties=species:S:1:pos:R:3:initial_charges:R:1 pbc="F F F"
C       -0.72340000       0.00030000      -0.00010000       0.00000000
C        0.72340000      -0.00020000      -0.00010000       0.00000000
C       -1.42060000      -0.95860000       0.73490000      -0.15000000
C        1.42002859      -0.91864136      -0.78533411      -0.15000000
C       -1.42100000       0.95880000      -0.73500000      -0.15000000
C        1.42167095       0.91709208       0.78527567      -0.15000000
C       -2.81540000      -0.95880000       0.73500000      -0.15000000
C        2.81492804      -0.91992997      -0.78536745      -0.15000000
C       -2.81590000       0.95860000      -0.73490000      -0.15000000
C        2.81647047       0.91590137       0.78522157      -0.15000000
C       -3.51320000      -0.00020000       0.00010000      -0.15000000
C        3.51309912      -0.00244217      -0.00003330      -0.15000000
H       -0.89230000      -1.71300000       1.31310000       0.15000000
H        0.89137918      -1.64065435      -1.40330514       0.15000000
H       -0.89310000       1.71340000      -1.31340000       0.15000000
H        0.89412061       1.63984791       1.40326877       0.15000000
H       -3.35840000      -1.70540000       1.30720000       0.15000000
H        3.35748313      -1.63502704      -1.39660401       0.15000000
H       -3.35930000       1.70490000      -1.30700000       0.15000000
H        3.36031500       1.63010158       1.39677320       0.15000000
H       -4.59920000      -0.00040000       0.00020000       0.15000000
H        4.59919872      -0.00340109      -0.00001171       0.15000000
