22
Properties=species:S:1:pos:R:3:initial_charges:R:1 pbc="F F F"
C       -0.72340000       0.00030000      -0.00010000       0.00000000
C        0.72340000      -0.00020000      -0.00010000       0.00000000
C       -1.42060000      -0.95860000       0.73490000      -0.15000000
C        1.41995733      -1.12483041       0.44197789      -0.15000000
C       -1.42100000       0.95880000      -0.73500000      -0.15000000
C        1.42174237       1.12376009      -0.44152232      -0.15000000
C       -2.81540000      -0.95880000       0.73500000      -0.15000000
C        2.81485692      -1.12572056       0.44267437      -0.15000000
C       -2.81590000       0.95860000      -0.73490000      -0.15000000
C        2.81654200       1.12289759      -0.44092198      -0.15000000
C       -3.51320000      -0.00020000       0.00010000      -0.15000000
C        3.51309938      -0.00170522       0.00105979      -0.15000000
H       -0.89230000      -1.71300000       1.31310000       0.15000000
H        0.89125176      -2.00933410       0.78951897       0.15000000
H       -0.89310000       1.71340000      -1.31340000       0.15000000
H        0.89424813       2.00882566      -0.78938663       0.15000000
H       -3.35840000      -1.70540000       1.30720000       0.15000000
H        3.35735657      -2.00122763       0.78694384       0.15000000
H       -3.35930000       1.70490000      -1.30700000       0.15000000
H        3.36044216       1.99806263      -0.78458315       0.15000000
H       -4.59920000      -0.00040000       0.00020000       0.15000000
H        4.59919909      -0.00233548       0.00158519       0.15000000
