22
Properties=species:S:1:pos:R:3:initial_charges:R:1 pbc="F F F"
C       -0.72340000       0.00030000      -0.00010000       0.00000000
C        0.72340000      -0.00020000      -0.00010000       0.00000000
C       -1.42060000      -0.95860000       0.73490000      -0.15000000
C        1.42062819       0.81635960      -0.89033694      -0.15000000
C       -1.42100000       0.95880000      -0.73500000      -0.15000000
C        1.42107154      -0.81735985       0.88946519      -0.15000000
C       -2.81540000      -0.95880000       0.73500000      -0.15000000
C        2.81552794       0.81593900      -0.89114183      -0.15000000
C       -2.81590000       0.95860000      -0.73490000      -0.15000000
C        2.81587133      -0.81776308       0.88875883      -0.15000000
C       -3.51320000      -0.00020000       0.00010000      -0.15000000
C        3.51309956      -0.00118615      -0.00137963      -0.15000000
H       -0.89230000      -1.71300000       1.31310000       0.15000000
H        0.89245050       1.45934102      -1.59052577       0.15000000
H       -0.89310000       1.71340000      -1.31340000       0.15000000
H        0.89304933      -1.46001149       1.59003084       0.15000000
H       -3.35840000      -1.70540000       1.30720000       0.15000000
H        3.35854982       1.45156557      -1.58428400       0.15000000
H       -3.35930000       1.70490000      -1.30700000       0.15000000
H        3.35924914      -1.45406178       1.58136891       0.15000000
H       -4.59920000      -0.00040000       0.00020000       0.15000000
H        4.59919936      -0.00156270      -0.00196360       0.15000000
