22
Properties=species:S:1:pos:R:3:initial_charges:R:1 pbc="F F F"
C       -0.72340000       0.00030000      -0.00010000       0.00000000
C        0.72340000      -0.00020000      -0.00010000       0.00000000
C       -1.42060000      -0.95860000       0.73490000      -0.15000000
C        1.42004829      -0.86162951      -0.84747175      -0.15000000
C       -1.42100000       0.95880000      -0.73500000      -0.15000000
C        1.42165124       0.86007198       0.84736642      -0.15000000
C       -2.81540000      -0.95880000       0.73500000      -0.15000000
C        2.81494774      -0.86291383      -0.84756127      -0.15000000
C       -2.81590000       0.95860000      -0.73490000      -0.15000000
C        2.81645076       0.85888677       0.84726302      -0.15000000
C       -3.51320000      -0.00020000       0.00010000      -0.15000000
C        3.51309912      -0.00244371      -0.00012261      -0.15000000
H       -0.89230000      -1.71300000       1.31310000       0.15000000
H        0.89141438      -1.53877579      -1.51431526       0.15000000
H       -0.89310000       1.71340000      -1.31340000       0.15000000
H        0.89408540       1.53795864       1.51425830       0.15000000
H       -3.35840000      -1.70540000       1.30720000       0.15000000
H        3.35751817      -1.53363171      -1.50717846       0.15000000
H       -3.35930000       1.70490000      -1.30700000       0.15000000
H        3.36027995       1.52868708       1.50715814       0.15000000
H       -4.59920000      -0.00040000       0.00020000       0.15000000
H        4.59919872      -0.00340271      -0.00014179       0.15000000
