22
Properties=species:S:1:pos:R:3:initial_charges:R:1 pbc="F F F"
C       -0.72340000       0.00030000      -0.00010000       0.00000000
C        0.72340000      -0.00020000      -0.00010000       0.00000000
C       -1.42060000      -0.95860000       0.73490000      -0.15000000
C        1.42012798      -0.63105076      -1.03064159      -0.15000000
C       -1.42100000       0.95880000      -0.73500000      -0.15000000
C        1.42157155       0.62949039       1.03037004      -0.15000000
C       -2.81540000      -0.95880000       0.73500000      -0.15000000
C        2.81502744      -0.63228959      -1.03092253      -0.15000000
C       -2.81590000       0.95860000      -0.73490000      -0.15000000
C        2.81637109       0.62835108       1.03009960      -0.15000000
C       -3.51320000      -0.00020000       0.00010000      -0.15000000
C        3.51309914      -0.00240023      -0.00043151      -0.15000000
H       -0.89230000      -1.71300000       1.31310000       0.15000000
H        0.89155678      -1.12675344      -1.84153770       0.15000000
H       -0.89310000       1.71340000      -1.31340000       0.15000000
H        0.89394300       1.12591060       1.84140389       0.15000000
H       -3.35840000      -1.70540000       1.30720000       0.15000000
H        3.35765990      -1.12351403      -1.83316224       0.15000000
H       -3.35930000       1.70490000      -1.30700000       0.15000000
H        3.36013823       1.11860682       1.83247783       0.15000000
H       -4.59920000      -0.00040000       0.00020000       0.15000000
H        4.59919874      -0.00333726      -0.00059131       0.15000000
