22
Properties=species:S:1:pos:R:3:initial_charges:R:1 pbc="F F F"
C       -0.72340000       0.00030000      -0.00010000       0.00000000
C        0.72340000      -0.00020000      -0.00010000       0.00000000
C       -1.42060000      -0.95860000       0.73490000      -0.15000000
C        1.42070205       1.03010068      -0.63070994      -0.15000000
C       -1.42100000       0.95880000      -0.73500000      -0.15000000
C        1.42099774      -1.03091119       0.62983164      -0.15000000
C       -2.81540000      -0.95880000       0.73500000      -0.15000000
C        2.81560188       1.02989955      -0.63146671      -0.15000000
C       -2.81590000       0.95860000      -0.73490000      -0.15000000
C        2.81579759      -1.03112277       0.62917435      -0.15000000
C       -3.51320000      -0.00020000       0.00010000      -0.15000000
C        3.51309968      -0.00083258      -0.00133614      -0.15000000
H       -0.89230000      -1.71300000       1.31310000       0.15000000
H        0.89258246       1.84117934      -1.12659526       0.15000000
H       -0.89310000       1.71340000      -1.31340000       0.15000000
H        0.89291740      -1.84176258       1.12606947       0.15000000
H       -3.35840000      -1.70540000       1.30720000       0.15000000
H        3.35868128       1.83195162      -1.12250359       0.15000000
H       -3.35930000       1.70490000      -1.30700000       0.15000000
H        3.35911795      -1.83368882       1.11961798       0.15000000
H       -4.59920000      -0.00040000       0.00020000       0.15000000
H        4.59919953      -0.00104812      -0.00189782       0.15000000
