22
Properties=species:S:1:pos:R:3:initial_charges:R:1 pbc="F F F"
C       -0.72340000       0.00030000      -0.00010000       0.00000000
C        0.72340000      -0.00020000      -0.00010000       0.00000000
C       -1.42060000      -0.95860000       0.73490000      -0.15000000
C        1.42002356      -0.93318930       0.76779656      -0.15000000
C       -1.42100000       0.95880000      -0.73500000      -0.15000000
C        1.42167621       0.93233078      -0.76731490      -0.15000000
C       -2.81540000      -0.95880000       0.73500000      -0.15000000
C        2.81492323      -0.93384424       0.76858506      -0.15000000
C       -2.81590000       0.95860000      -0.73490000      -0.15000000
C        2.81647592       0.93167241      -0.76662637      -0.15000000
C       -3.51320000      -0.00020000       0.00010000      -0.15000000
C        3.51309951      -0.00132034       0.00117024      -0.15000000
H       -0.89230000      -1.71300000       1.31310000       0.15000000
H        0.89137007      -1.66699727       1.37171088       0.15000000
H       -0.89310000       1.71340000      -1.31340000       0.15000000
H        0.89412986       1.66659110      -1.37159747       0.15000000
H       -3.35840000      -1.70540000       1.30720000       0.15000000
H        3.35747445      -1.66012503       1.36649339       0.15000000
H       -3.35930000       1.70490000      -1.30700000       0.15000000
H        3.36032457       1.65779749      -1.36396650       0.15000000
H       -4.59920000      -0.00040000       0.00020000       0.15000000
H        4.59919928      -0.00177576       0.00174870       0.15000000
