22
Properties=species:S:1:pos:R:3:initial_charges:R:1 pbc="F F F"
C       -0.72340000       0.00030000      -0.00010000       0.00000000
C        0.72340000      -0.00020000      -0.00010000       0.00000000
C       -1.42060000      -0.95860000       0.73490000      -0.15000000
C        1.42066323       0.91775965       0.78513411      -0.15000000
C       -1.42100000       0.95880000      -0.73500000      -0.15000000
C        1.42103677      -0.91797450      -0.78547567      -0.15000000
C       -2.81540000      -0.95880000       0.73500000      -0.15000000
C        2.81556324       0.91808412       0.78516745      -0.15000000
C       -2.81590000       0.95860000      -0.73490000      -0.15000000
C        2.81583678      -0.91774784      -0.78542157      -0.15000000
C       -3.51320000      -0.00020000       0.00010000      -0.15000000
C        3.51310000       0.00011398      -0.00016670      -0.15000000
H       -0.89230000      -1.71300000       1.31310000       0.15000000
H        0.89251299       1.64013786       1.40310514       0.15000000
H       -0.89310000       1.71340000      -1.31340000       0.15000000
H        0.89298700      -1.64036552      -1.40346877       0.15000000
H       -3.35840000      -1.70540000       1.30720000       0.15000000
H        3.35861246       1.63280602       1.39640401       0.15000000
H       -3.35930000       1.70490000      -1.30700000       0.15000000
H        3.35918754      -1.63232377      -1.39697320       0.15000000
H       -4.59920000      -0.00040000       0.00020000       0.15000000
H        4.59920001       0.00032221      -0.00018829       0.15000000
