22
Properties=species:S:1:pos:R:3:initial_charges:R:1 pbc="F F F"
C       -0.72340000       0.00030000      -0.00010000       0.00000000
C        0.72340000      -0.00020000      -0.00010000       0.00000000
C       -1.42060000      -0.95860000       0.73490000      -0.15000000
C        1.42045071       0.30281024      -1.16959717      -0.15000000
C       -1.42100000       0.95880000      -0.73500000      -0.15000000
C        1.42124891      -0.30411202       1.16885954      -0.15000000
C       -2.81540000      -0.95880000       0.73500000      -0.15000000
C        2.81535033       0.30200457      -1.17033670      -0.15000000
C       -2.81590000       0.95860000      -0.73490000      -0.15000000
C        2.81604858      -0.30485609       1.16819886      -0.15000000
C       -3.51320000      -0.00020000       0.00010000      -0.15000000
C        3.51309935      -0.00178432      -0.00121949      -0.15000000
H       -0.89230000      -1.71300000       1.31310000       0.15000000
H        0.89213342       0.54183178      -2.08960299       0.15000000
H       -0.89310000       1.71340000      -1.31340000       0.15000000
H        0.89336637      -0.54262276       2.08921461       0.15000000
H       -3.35840000      -1.70540000       1.30720000       0.15000000
H        3.35823403       0.53779704      -2.08084160       0.15000000
H       -3.35930000       1.70490000      -1.30700000       0.15000000
H        3.35956450      -0.54153577       2.07837324       0.15000000
H       -4.59920000      -0.00040000       0.00020000       0.15000000
H        4.59919905      -0.00243489      -0.00173454       0.15000000
