22
Properties=species:S:1:pos:R:3:initial_charges:R:1 pbc="F F F"
C       -0.72340000       0.00030000      -0.00010000       0.00000000
C        0.72340000      -0.00020000      -0.00010000       0.00000000
C       -1.42060000      -0.95860000       0.73490000      -0.15000000
C        1.42013376      -0.61430161       1.04050550      -0.15000000
C       -1.42100000       0.95880000      -0.73500000      -0.15000000
C        1.42156609       0.61367481      -1.04007300      -0.15000000
C       -2.81540000      -0.95880000       0.73500000      -0.15000000
C        2.81503353      -0.61467645       1.04130558      -0.15000000
C       -2.81590000       0.95860000      -0.73490000      -0.15000000
C        2.81636588       0.61326257      -1.03936569      -0.15000000
C       -3.51320000      -0.00020000       0.00010000      -0.15000000
C        3.51309966      -0.00087647       0.00114708      -0.15000000
H       -0.89230000      -1.71300000       1.31310000       0.15000000
H        0.89156696      -1.09729368       1.85903892       0.15000000
H       -0.89310000       1.71340000      -1.31340000       0.15000000
H        0.89393301       1.09698802      -1.85898233       0.15000000
H       -3.35840000      -1.70540000       1.30720000       0.15000000
H        3.35767056      -1.09267177       1.85149414       0.15000000
H       -3.35930000       1.70490000      -1.30700000       0.15000000
H        3.36012879       1.09128327      -1.84909547       0.15000000
H       -4.59920000      -0.00040000       0.00020000       0.15000000
H        4.59919951      -0.00112922       0.00171804       0.15000000
