22
Properties=species:S:1:pos:R:3:initial_charges:R:1 pbc="F F F"
C       -0.72340000       0.00030000      -0.00010000       0.00000000
C        0.72340000      -0.00020000      -0.00010000       0.00000000
C       -1.42060000      -0.95860000       0.73490000      -0.15000000
C        1.42037113       0.07254469       1.20586765      -0.15000000
C       -1.42100000       0.95880000      -0.73500000      -0.15000000
C        1.42132883      -0.07286144      -1.20568603      -0.15000000
C       -2.81540000      -0.95880000       0.73500000      -0.15000000
C        2.81527105       0.07259892       1.20647099      -0.15000000
C       -2.81590000       0.95860000      -0.73490000      -0.15000000
C        2.81612875      -0.07289009      -1.20513867      -0.15000000
C       -3.51320000      -0.00020000       0.00010000      -0.15000000
C        3.51309989      -0.00022828       0.00077304      -0.15000000
H       -0.89230000      -1.71300000       1.31310000       0.15000000
H        0.89199105       0.12987539       2.15465048       0.15000000
H       -0.89310000       1.71340000      -1.31340000       0.15000000
H        0.89350895      -0.13007371      -2.15475597       0.15000000
H       -3.35840000      -1.70540000       1.30720000       0.15000000
H        3.35809287       0.12934243       2.14533446       0.15000000
H       -3.35930000       1.70490000      -1.30700000       0.15000000
H        3.35970693      -0.12942021      -2.14384593       0.15000000
H       -4.59920000      -0.00040000       0.00020000       0.15000000
H        4.59919983      -0.00018272       0.00117783       0.15000000
