22
Properties=species:S:1:pos:R:3:initial_charges:R:1 pbc="F F F"
C       -0.72340000       0.00030000      -0.00010000       0.00000000
C        0.72340000      -0.00020000      -0.00010000       0.00000000
C       -1.42060000      -0.95860000       0.73490000      -0.15000000
C        1.41996893      -1.09125366       0.51933446      -0.15000000
C       -1.42100000       0.95880000      -0.73500000      -0.15000000
C        1.42173078       1.09022953      -0.51886736      -0.15000000
C       -2.81540000      -0.95880000       0.73500000      -0.15000000
C        2.81486854      -1.09209423       0.52005772      -0.15000000
C       -2.81590000       0.95860000      -0.73490000      -0.15000000
C        2.81653043       1.08940984      -0.51824194      -0.15000000
C       -3.51320000      -0.00020000       0.00010000      -0.15000000
C        3.51309940      -0.00162300       0.00109471      -0.15000000
H       -0.89230000      -1.71300000       1.31310000       0.15000000
H        0.89127249      -1.94935906       0.92774155       0.15000000
H       -0.89310000       1.71340000      -1.31340000       0.15000000
H        0.89422741       1.94887378      -0.92761062       0.15000000
H       -3.35840000      -1.70540000       1.30720000       0.15000000
H        3.35737723      -1.94145405       0.92454776       0.15000000
H       -3.35930000       1.70490000      -1.30700000       0.15000000
H        3.36042157       1.93846996      -0.92212750       0.15000000
H       -4.59920000      -0.00040000       0.00020000       0.15000000
H        4.59919913      -0.00221598       0.00163661       0.15000000
