22
Properties=species:S:1:pos:R:3:initial_charges:R:1 pbc="F F F"
C       -0.72340000       0.00030000      -0.00010000       0.00000000
C        0.72340000      -0.00020000      -0.00010000       0.00000000
C       -1.42060000      -0.95860000       0.73490000      -0.15000000
C        1.42009194      -0.73531713      -0.95907949      -0.15000000
C       -1.42100000       0.95880000      -0.73500000      -0.15000000
C        1.42160759       0.73375301       0.95887923      -0.15000000
C       -2.81540000      -0.95880000       0.73500000      -0.15000000
C        2.81499140      -0.73658119      -0.95927979      -0.15000000
C       -2.81590000       0.95860000      -0.73490000      -0.15000000
C        2.81640712       0.73258902       0.95867897      -0.15000000
C       -3.51320000      -0.00020000       0.00010000      -0.15000000
C        3.51309913      -0.00242811      -0.00030048      -0.15000000
H       -0.89230000      -1.71300000       1.31310000       0.15000000
H        0.89149239      -1.31306503      -1.71369929       0.15000000
H       -0.89310000       1.71340000      -1.31340000       0.15000000
H        0.89400739       1.31223089       1.71359917       0.15000000
H       -3.35840000      -1.70540000       1.30720000       0.15000000
H        3.35759581      -1.30897255      -1.70579741       0.15000000
H       -3.35930000       1.70490000      -1.30700000       0.15000000
H        3.36020231       1.30402942       1.70539638       0.15000000
H       -4.59920000      -0.00040000       0.00020000       0.15000000
H        4.59919873      -0.00337876      -0.00040070       0.15000000
