22
Properties=species:S:1:pos:R:3:initial_charges:R:1 pbc="F F F"
C       -0.72340000       0.00030000      -0.00010000       0.00000000
C        0.72340000      -0.00020000      -0.00010000       0.00000000
C       -1.42060000      -0.95860000       0.73490000      -0.15000000
C        1.41993300      -1.19522970      -0.17944413      -0.15000000
C       -1.42100000       0.95880000      -0.73500000      -0.15000000
C        1.42176659       1.19385682       0.17971774      -0.15000000
C       -2.81540000      -0.95880000       0.73500000      -0.15000000
C        2.81483249      -1.19641342      -0.17904500      -0.15000000
C       -2.81590000       0.95860000      -0.73490000      -0.15000000
C        2.81656614       1.19274513       0.18004741      -0.15000000
C       -3.51320000      -0.00020000       0.00010000      -0.15000000
C        3.51309920      -0.00221262       0.00063385      -0.15000000
H       -0.89230000      -1.71300000       1.31310000       0.15000000
H        0.89120834      -2.13497844      -0.32080790       0.15000000
H       -0.89310000       1.71340000      -1.31340000       0.15000000
H        0.89429149       2.13430267       0.32090002       0.15000000
H       -3.35840000      -1.70540000       1.30720000       0.15000000
H        3.35731318      -2.12678464      -0.31855867       0.15000000
H       -3.35930000       1.70490000      -1.30700000       0.15000000
H        3.36048516       2.12246568       0.32010459       0.15000000
H       -4.59920000      -0.00040000       0.00020000       0.15000000
H        4.59919883      -0.00307142       0.00096140       0.15000000
