22
Properties=species:S:1:pos:R:3:initial_charges:R:1 pbc="F F F"
C       -0.72340000       0.00030000      -0.00010000       0.00000000
C        0.72340000      -0.00020000      -0.00010000       0.00000000
C       -1.42060000      -0.95860000       0.73490000      -0.15000000
C        1.42010919      -0.68539524       0.99514987      -0.15000000
C       -1.42100000       0.95880000      -0.73500000      -0.15000000
C        1.42159064       0.68472370      -0.99470111      -0.15000000
C       -2.81540000      -0.95880000       0.73500000      -0.15000000
C        2.81500894      -0.68582615       0.99595548      -0.15000000
C       -2.81590000       0.95860000      -0.73490000      -0.15000000
C        2.81639041       0.68426195      -0.99399065      -0.15000000
C       -3.51320000      -0.00020000       0.00010000      -0.15000000
C        3.51309963      -0.00096416       0.00116410      -0.15000000
H       -0.89230000      -1.71300000       1.31310000       0.15000000
H        0.89152306      -1.22430832       1.77798482       0.15000000
H       -0.89310000       1.71340000      -1.31340000       0.15000000
H        0.89397690       1.22398425      -1.77791411       0.15000000
H       -3.35840000      -1.70540000       1.30720000       0.15000000
H        3.35762684      -1.21917345       1.77084028       0.15000000
H       -3.35930000       1.70490000      -1.30700000       0.15000000
H        3.36017244       1.21760165      -1.76838983       0.15000000
H       -4.59920000      -0.00040000       0.00020000       0.15000000
H        4.59919946      -0.00125704       0.00174222       0.15000000
