22
Properties=species:S:1:pos:R:3:initial_charges:R:1 pbc="F F F"
C       -0.72340000       0.00030000      -0.00010000       0.00000000
C        0.72340000      -0.00020000      -0.00010000       0.00000000
C       -1.42060000      -0.95860000       0.73490000      -0.15000000
C        1.42061129       0.76745565       0.93264849      -0.15000000
C       -1.42100000       0.95880000      -0.73500000      -0.15000000
C        1.42108871      -0.76765606      -0.93287204      -0.15000000
C       -2.81540000      -0.95880000       0.73500000      -0.15000000
C        2.81551129       0.76776209       0.93282138      -0.15000000
C       -2.81590000       0.95860000      -0.73490000      -0.15000000
C        2.81588872      -0.76744956      -0.93269570      -0.15000000
C       -3.51320000      -0.00020000       0.00010000      -0.15000000
C        3.51310000       0.00010615       0.00005624      -0.15000000
H       -0.89230000      -1.71300000       1.31310000       0.15000000
H        0.89242017       1.37155255       1.66663912       0.15000000
H       -0.89310000       1.71340000      -1.31340000       0.15000000
H        0.89307983      -1.37175619      -1.66695000       0.15000000
H       -3.35840000      -1.70540000       1.30720000       0.15000000
H        3.35852007       1.36548280       1.65891462       0.15000000
H       -3.35930000       1.70490000      -1.30700000       0.15000000
H        3.35927993      -1.36497752      -1.65900869       0.15000000
H       -4.59920000      -0.00040000       0.00020000       0.15000000
H        4.59920000       0.00030926       0.00013632       0.15000000
