22
Properties=species:S:1:pos:R:3:initial_charges:R:1 pbc="F F F"
C       -0.72340000       0.00030000      -0.00010000       0.00000000
C        0.72340000      -0.00020000      -0.00010000       0.00000000
C       -1.42060000      -0.95860000       0.73490000      -0.15000000
C        1.42074617       1.15776051       0.34378124      -0.15000000
C       -1.42100000       0.95880000      -0.73500000      -0.15000000
C        1.42095378      -1.15809062      -0.34438194      -0.15000000
C       -2.81540000      -0.95880000       0.73500000      -0.15000000
C        2.81564616       1.15802882       0.34348365      -0.15000000
C       -2.81590000       0.95860000      -0.73490000      -0.15000000
C        2.81575378      -1.15790323      -0.34462077      -0.15000000
C       -3.51320000      -0.00020000       0.00010000      -0.15000000
C        3.51309996      -0.00002364      -0.00068078      -0.15000000
H       -0.89230000      -1.71300000       1.31310000       0.15000000
H        0.89266122       2.06905308       0.61458244       0.15000000
H       -0.89310000       1.71340000      -1.31340000       0.15000000
H        0.89283874      -2.06937231      -0.61504963       0.15000000
H       -3.35840000      -1.70540000       1.30720000       0.15000000
H        3.35875994       2.05955584       0.61109613       0.15000000
H       -3.35930000       1.70490000      -1.30700000       0.15000000
H        3.35903992      -2.05945751      -0.61273316       0.15000000
H       -4.59920000      -0.00040000       0.00020000       0.15000000
H        4.59919994       0.00012535      -0.00093786       0.15000000
