22
Properties=species:S:1:pos:R:3:initial_charges:R:1 pbc="F F F"
C       -0.72340000       0.00030000      -0.00010000       0.00000000
C        0.72340000      -0.00020000      -0.00010000       0.00000000
C       -1.42060000      -0.95860000       0.73490000      -0.15000000
C        1.42070553       1.04016458       0.61376079      -0.15000000
C       -1.42100000       0.95880000      -0.73500000      -0.15000000
C        1.42099445      -1.04041415      -0.61421605      -0.15000000
C       -2.81540000      -0.95880000       0.73500000      -0.15000000
C        2.81560554       1.04048260       0.61365356      -0.15000000
C       -2.81590000       0.95860000      -0.73490000      -0.15000000
C        2.81579446      -1.04018886      -0.61428584      -0.15000000
C       -3.51320000      -0.00020000       0.00010000      -0.15000000
C        3.51309999       0.00008298      -0.00038763      -0.15000000
H       -0.89230000      -1.71300000       1.31310000       0.15000000
H        0.89258858       1.85888056       1.09693549       0.15000000
H       -0.89310000       1.71340000      -1.31340000       0.15000000
H        0.89291140      -1.85914102      -1.09734688       0.15000000
H       -3.35840000      -1.70540000       1.30720000       0.15000000
H        3.35868768       1.85048352       1.09146133       0.15000000
H       -3.35930000       1.70490000      -1.30700000       0.15000000
H        3.35911227      -1.85010646      -1.09249444       0.15000000
H       -4.59920000      -0.00040000       0.00020000       0.15000000
H        4.59919999       0.00027860      -0.00051022       0.15000000
