22
Properties=species:S:1:pos:R:3:initial_charges:R:1 pbc="F F F"
C       -0.72340000       0.00030000      -0.00010000       0.00000000
C        0.72340000      -0.00020000      -0.00010000       0.00000000
C       -1.42060000      -0.95860000       0.73490000      -0.15000000
C        1.42068986       0.99480896       0.68485442      -0.15000000
C       -1.42100000       0.95880000      -0.73500000      -0.15000000
C        1.42101013      -0.99504226      -0.68526495      -0.15000000
C       -2.81540000      -0.95880000       0.73500000      -0.15000000
C        2.81558986       0.99513250       0.68480327      -0.15000000
C       -2.81590000       0.95860000      -0.73490000      -0.15000000
C        2.81581014      -0.99481383      -0.68528522      -0.15000000
C       -3.51320000      -0.00020000       0.00010000      -0.15000000
C        3.51310000       0.00010001      -0.00029993      -0.15000000
H       -0.89230000      -1.71300000       1.31310000       0.15000000
H        0.89256057       1.77782647       1.22395015       0.15000000
H       -0.89310000       1.71340000      -1.31340000       0.15000000
H        0.89293941      -1.77807281      -1.22434312       0.15000000
H       -3.35840000      -1.70540000       1.30720000       0.15000000
H        3.35865981       1.76982967       1.21796302       0.15000000
H       -3.35930000       1.70490000      -1.30700000       0.15000000
H        3.35914016      -1.76940082      -1.21881282       0.15000000
H       -4.59920000      -0.00040000       0.00020000       0.15000000
H        4.59920000       0.00030278      -0.00038240       0.15000000
