22
Properties=species:S:1:pos:R:3:initial_charges:R:1 pbc="F F F"
C       -0.72340000       0.00030000      -0.00010000       0.00000000
C        0.72340000      -0.00020000      -0.00010000       0.00000000
C       -1.42060000      -0.95860000       0.73490000      -0.15000000
C        1.42019943      -0.42427645       1.13129217      -0.15000000
C       -1.42100000       0.95880000      -0.73500000      -0.15000000
C        1.42150045       0.42375560      -1.13091361      -0.15000000
C       -2.81540000      -0.95880000       0.73500000      -0.15000000
C        2.81509925      -0.42451398       1.13206148      -0.15000000
C       -2.81590000       0.95860000      -0.73490000      -0.15000000
C        2.81630029       0.42346512      -1.13022916      -0.15000000
C       -3.51320000      -0.00020000       0.00010000      -0.15000000
C        3.51309974      -0.00066428       0.00107819      -0.15000000
H       -0.89230000      -1.71300000       1.31310000       0.15000000
H        0.89168429      -0.75779118       2.02129263       0.15000000
H       -0.89310000       1.71340000      -1.31340000       0.15000000
H        0.89381569       0.75752686      -2.02127665       0.15000000
H       -3.35840000      -1.70540000       1.30720000       0.15000000
H        3.35778741      -0.75456257       2.01291190       0.15000000
H       -3.35930000       1.70490000      -1.30700000       0.15000000
H        3.36001209       0.75361267      -2.01069738       0.15000000
H       -4.59920000      -0.00040000       0.00020000       0.15000000
H        4.59919961      -0.00081975       0.00161918       0.15000000
