22
Properties=species:S:1:pos:R:3:initial_charges:R:1 pbc="F F F"
C       -0.72340000       0.00030000      -0.00010000       0.00000000
C        0.72340000      -0.00020000      -0.00010000       0.00000000
C       -1.42060000      -0.95860000       0.73490000      -0.15000000
C        1.41998976      -1.03098239       0.63050994      -0.15000000
C       -1.42100000       0.95880000      -0.73500000      -0.15000000
C        1.42170998       1.03002877      -0.63003164      -0.15000000
C       -2.81540000      -0.95880000       0.73500000      -0.15000000
C        2.81488940      -1.03174539       0.63126671      -0.15000000
C       -2.81590000       0.95860000      -0.73490000      -0.15000000
C        2.81650965       1.02927630      -0.62937435      -0.15000000
C       -3.51320000      -0.00020000       0.00010000      -0.15000000
C        3.51309945      -0.00149560       0.00113614      -0.15000000
H       -0.89230000      -1.71300000       1.31310000       0.15000000
H        0.89130970      -1.84169584       1.12639526       0.15000000
H       -0.89310000       1.71340000      -1.31340000       0.15000000
H        0.89419021       1.84124498      -1.12626947       0.15000000
H       -3.35840000      -1.70540000       1.30720000       0.15000000
H        3.35741430      -1.83417264       1.12230359       0.15000000
H       -3.35930000       1.70490000      -1.30700000       0.15000000
H        3.36038459       1.83146662      -1.11981798       0.15000000
H       -4.59920000      -0.00040000       0.00020000       0.15000000
H        4.59919919      -0.00203075       0.00169782       0.15000000
