22
Properties=species:S:1:pos:R:3:initial_charges:R:1 pbc="F F F"
C       -0.72340000       0.00030000      -0.00010000       0.00000000
C        0.72340000      -0.00020000      -0.00010000       0.00000000
C       -1.42060000      -0.95860000       0.73490000      -0.15000000
C        1.42042226       0.22049154      -1.18790206      -0.15000000
C       -1.42100000       0.95880000      -0.73500000      -0.15000000
C        1.42127735      -0.22182980       1.18719502      -0.15000000
C       -2.81540000      -0.95880000       0.73500000      -0.15000000
C        2.81532186       0.21963507      -1.18861722      -0.15000000
C       -2.81590000       0.95860000      -0.73490000      -0.15000000
C        2.81607700      -0.22261932       1.18655423      -0.15000000
C       -3.51320000      -0.00020000       0.00010000      -0.15000000
C        3.51309932      -0.00186090      -0.00117350      -0.15000000
H       -0.89230000      -1.71300000       1.31310000       0.15000000
H        0.89208259       0.39475493      -2.12232736       0.15000000
H       -0.89310000       1.71340000      -1.31340000       0.15000000
H        0.89341720      -0.39555838       2.12195855       0.15000000
H       -3.35840000      -1.70540000       1.30720000       0.15000000
H        3.35818342       0.39133910      -2.11336531       0.15000000
H       -3.35930000       1.70490000      -1.30700000       0.15000000
H        3.35961506      -0.39523237       2.11100830       0.15000000
H       -4.59920000      -0.00040000       0.00020000       0.15000000
H        4.59919902      -0.00254672      -0.00166809       0.15000000
