22
Properties=species:S:1:pos:R:3:initial_charges:R:1 pbc="F F F"
C       -0.72340000       0.00030000      -0.00010000       0.00000000
C        0.72340000      -0.00020000      -0.00010000       0.00000000
C       -1.42060000      -0.95860000       0.73490000      -0.15000000
C        1.42038566       0.11458789       1.20258585      -0.15000000
C       -1.42100000       0.95880000      -0.73500000      -0.15000000
C        1.42131430      -0.11489167      -1.20242419      -0.15000000
C       -2.81540000      -0.95880000       0.73500000      -0.15000000
C        2.81528558       0.11466285       1.20317010      -0.15000000
C       -2.81590000       0.95860000      -0.73490000      -0.15000000
C        2.81611423      -0.11490149      -1.20189298      -0.15000000
C       -3.51320000      -0.00020000       0.00010000      -0.15000000
C        3.51309990      -0.00019838       0.00073984      -0.15000000
H       -0.89230000      -1.71300000       1.31310000       0.15000000
H        0.89201702       0.20499582       2.14879626       0.15000000
H       -0.89310000       1.71340000      -1.31340000       0.15000000
H        0.89348299      -0.20519103      -2.14891293       0.15000000
H       -3.35840000      -1.70540000       1.30720000       0.15000000
H        3.35811872       0.20413754       2.13947478       0.15000000
H       -3.35930000       1.70490000      -1.30700000       0.15000000
H        3.35968110      -0.20415769      -2.13806210       0.15000000
H       -4.59920000      -0.00040000       0.00020000       0.15000000
H        4.59919985      -0.00013895       0.00112970       0.15000000
