22
Properties=species:S:1:pos:R:3:initial_charges:R:1 pbc="F F F"
C       -0.72340000       0.00030000      -0.00010000       0.00000000
C        0.72340000      -0.00020000      -0.00010000       0.00000000
C       -1.42060000      -0.95860000       0.73490000      -0.15000000
C        1.42073691       1.13095125       0.42373561      -0.15000000
C       -1.42100000       0.95880000      -0.73500000      -0.15000000
C        1.42096306      -1.13125475      -0.42429683      -0.15000000
C       -2.81540000      -0.95880000       0.73500000      -0.15000000
C        2.81563690       1.13123849       0.42349109      -0.15000000
C       -2.81590000       0.95860000      -0.73490000      -0.15000000
C        2.81576306      -1.13105233      -0.42448838      -0.15000000
C       -3.51320000      -0.00020000       0.00010000      -0.15000000
C        3.51309997       0.00001409      -0.00059981      -0.15000000
H       -0.89230000      -1.71300000       1.31310000       0.15000000
H        0.89264466       2.02113426       0.75743298       0.15000000
H       -0.89310000       1.71340000      -1.31340000       0.15000000
H        0.89285531      -2.02143534      -0.75788571       0.15000000
H       -3.35840000      -1.70540000       1.30720000       0.15000000
H        3.35874347       2.01190127       0.75335211       0.15000000
H       -3.35930000       1.70490000      -1.30700000       0.15000000
H        3.35905643      -2.01170836      -0.75482381       0.15000000
H       -4.59920000      -0.00040000       0.00020000       0.15000000
H        4.59919996       0.00017974      -0.00081969       0.15000000
