22
Properties=species:S:1:pos:R:3:initial_charges:R:1 pbc="F F F"
C       -0.72340000       0.00030000      -0.00010000       0.00000000
C        0.72340000      -0.00020000      -0.00010000       0.00000000
C       -1.42060000      -0.95860000       0.73490000      -0.15000000
C        1.42018588      -0.46350327       1.11581131      -0.15000000
C       -1.42100000       0.95880000      -0.73500000      -0.15000000
C        1.42151400       0.46296202      -1.11542049      -0.15000000
C       -2.81540000      -0.95880000       0.73500000      -0.15000000
C        2.81508568      -0.46376780       1.11658868      -0.15000000
C       -2.81590000       0.95860000      -0.73490000      -0.15000000
C        2.81631383       0.46264753      -1.11472978      -0.15000000
C       -3.51320000      -0.00020000       0.00010000      -0.15000000
C        3.51309972      -0.00070571       0.00109491      -0.15000000
H       -0.89230000      -1.71300000       1.31310000       0.15000000
H        0.89166007      -0.82787529       1.99362374       0.15000000
H       -0.89310000       1.71340000      -1.31340000       0.15000000
H        0.89383991       0.82760328      -1.99359907       0.15000000
H       -3.35840000      -1.70540000       1.30720000       0.15000000
H        3.35776329      -0.82435669       1.98539053       0.15000000
H       -3.35930000       1.70490000      -1.30700000       0.15000000
H        3.36003618       0.82332175      -1.98313310       0.15000000
H       -4.59920000      -0.00040000       0.00020000       0.15000000
H        4.59919959      -0.00088019       0.00164325       0.15000000
