22
Properties=species:S:1:pos:R:3:initial_charges:R:1 pbc="F F F"
C       -0.72340000       0.00030000      -0.00010000       0.00000000
C        0.72340000      -0.00020000      -0.00010000       0.00000000
C       -1.42060000      -0.95860000       0.73490000      -0.15000000
C        1.41997910      -1.06183582      -0.57727023      -0.15000000
C       -1.42100000       0.95880000      -0.73500000      -0.15000000
C        1.42172045       1.06033055       0.57734741      -0.15000000
C       -2.81540000      -0.95880000       0.73500000      -0.15000000
C        2.81487855      -1.06311373      -0.57713515      -0.15000000
C       -2.81590000       0.95860000      -0.73490000      -0.15000000
C        2.81651997       1.05914408       0.57744184      -0.15000000
C       -3.51320000      -0.00020000       0.00010000      -0.15000000
C        3.51309914      -0.00240037       0.00023097      -0.15000000
H       -0.89230000      -1.71300000       1.31310000       0.15000000
H        0.89129074      -1.89655050      -1.03158420       0.15000000
H       -0.89310000       1.71340000      -1.31340000       0.15000000
H        0.89420906       1.89578440       1.03160441       0.15000000
H       -3.35840000      -1.70540000       1.30720000       0.15000000
H        3.35739512      -1.88967154      -1.02637668       0.15000000
H       -3.35930000       1.70490000      -1.30700000       0.15000000
H        3.36040305       1.88488192       1.02709997       0.15000000
H       -4.59920000      -0.00040000       0.00020000       0.15000000
H        4.59919874      -0.00334205       0.00037342       0.15000000
