22
Properties=species:S:1:pos:R:3:initial_charges:R:1 pbc="F F F"
C       -0.72340000       0.00030000      -0.00010000       0.00000000
C        0.72340000      -0.00020000      -0.00010000       0.00000000
C       -1.42060000      -0.95860000       0.73490000      -0.15000000
C        1.42075882       1.19434799       0.17924413      -0.15000000
C       -1.42100000       0.95880000      -0.73500000      -0.15000000
C        1.42094112      -1.19473924      -0.17991774      -0.15000000
C       -2.81540000      -0.95880000       0.73500000      -0.15000000
C        2.81565879       1.19456758       0.17884500      -0.15000000
C       -2.81590000       0.95860000      -0.73490000      -0.15000000
C        2.81574110      -1.19459160      -0.18024741      -0.15000000
C       -3.51320000      -0.00020000       0.00010000      -0.15000000
C        3.51309993      -0.00011557      -0.00083385      -0.15000000
H       -0.89230000      -1.71300000       1.31310000       0.15000000
H        0.89268382       2.13446194       0.32060790       0.15000000
H       -0.89310000       1.71340000      -1.31340000       0.15000000
H        0.89281613      -2.13482028      -0.32110002       0.15000000
H       -3.35840000      -1.70540000       1.30720000       0.15000000
H        3.35878240       2.12456363       0.31835867       0.15000000
H       -3.35930000       1.70490000      -1.30700000       0.15000000
H        3.35901738      -2.12468788      -0.32030459       0.15000000
H       -4.59920000      -0.00040000       0.00020000       0.15000000
H        4.59919989      -0.00000746      -0.00116140       0.15000000
