22
Properties=species:S:1:pos:R:3:initial_charges:R:1 pbc="F F F"
C       -0.72340000       0.00030000      -0.00010000       0.00000000
C        0.72340000      -0.00020000      -0.00010000       0.00000000
C       -1.42060000      -0.95860000       0.73490000      -0.15000000
C        1.42026293      -0.24055437      -1.18417363      -0.15000000
C       -1.42100000       0.95880000      -0.73500000      -0.15000000
C        1.42143663       0.23905938       1.18367440      -0.15000000
C       -2.81540000      -0.95880000       0.73500000      -0.15000000
C        2.81516244      -0.24165147      -1.18469646      -0.15000000
C       -2.81590000       0.95860000      -0.73490000      -0.15000000
C        2.81623621       0.23805220       1.18319546      -0.15000000
C       -3.51320000      -0.00020000       0.00010000      -0.15000000
C        3.51309920      -0.00221230      -0.00083430      -0.15000000
H       -0.89230000      -1.71300000       1.31310000       0.15000000
H        0.89179791      -0.42900872      -2.11576949       0.15000000
H       -0.89310000       1.71340000      -1.31340000       0.15000000
H        0.89370187       0.42816289       2.11552026       0.15000000
H       -3.35840000      -1.70540000       1.30720000       0.15000000
H        3.35789996      -0.42888064      -2.10649970       0.15000000
H       -3.35930000       1.70490000      -1.30700000       0.15000000
H        3.35989829       0.42430107       2.10492597       0.15000000
H       -4.59920000      -0.00040000       0.00020000       0.15000000
H        4.59919884      -0.00306079      -0.00117657       0.15000000
