22
Properties=species:S:1:pos:R:3:initial_charges:R:1 pbc="F F F"
C       -0.72340000       0.00030000      -0.00010000       0.00000000
C        0.72340000      -0.00020000      -0.00010000       0.00000000
C       -1.42060000      -0.95860000       0.73490000      -0.15000000
C        1.41997543      -1.07246117       0.55708686      -0.15000000
C       -1.42100000       0.95880000      -0.73500000      -0.15000000
C        1.42172430       1.07146041      -0.55661520      -0.15000000
C       -2.81540000      -0.95880000       0.73500000      -0.15000000
C        2.81487504      -1.07327628       0.55782218      -0.15000000
C       -2.81590000       0.95860000      -0.73490000      -0.15000000
C        2.81652395       1.07066274      -0.55597838      -0.15000000
C       -3.51320000      -0.00020000       0.00010000      -0.15000000
C        3.51309942      -0.00158102       0.00111000      -0.15000000
H       -0.89230000      -1.71300000       1.31310000       0.15000000
H        0.89128409      -1.91579052       0.99519898       0.15000000
H       -0.89310000       1.71340000      -1.31340000       0.15000000
H        0.89421581       1.91531677      -0.99506936       0.15000000
H       -3.35840000      -1.70540000       1.30720000       0.15000000
H        3.35738879      -1.90800231       0.99170151       0.15000000
H       -3.35930000       1.70490000      -1.30700000       0.15000000
H        3.36041004       1.90511013      -0.98925624       0.15000000
H       -4.59920000      -0.00040000       0.00020000       0.15000000
H        4.59919915      -0.00215496       0.00165917       0.15000000
