22
Properties=species:S:1:pos:R:3:initial_charges:R:1 pbc="F F F"
C       -0.72340000       0.00030000      -0.00010000       0.00000000
C        0.72340000      -0.00020000      -0.00010000       0.00000000
C       -1.42060000      -0.95860000       0.73490000      -0.15000000
C        1.42076154       1.20224492      -0.11512876      -0.15000000
C       -1.42100000       0.95880000      -0.73500000      -0.15000000
C        1.42093834      -1.20276533       0.11435047      -0.15000000
C       -2.81540000      -0.95880000       0.73500000      -0.15000000
C        2.81566148       1.20234711      -0.11568578      -0.15000000
C       -2.81590000       0.95860000      -0.73490000      -0.15000000
C        2.81573829      -1.20271615       0.11387826      -0.15000000
C       -3.51320000      -0.00020000       0.00010000      -0.15000000
C        3.51309985      -0.00032425      -0.00106571      -0.15000000
H       -0.89230000      -1.71300000       1.31310000       0.15000000
H        0.89268872       2.14863789      -0.20535408       0.15000000
H       -0.89310000       1.71340000      -1.31340000       0.15000000
H        0.89281120      -2.14907161       0.20483224       0.15000000
H       -3.35840000      -1.70540000       1.30720000       0.15000000
H        3.35878721       2.13846414      -0.20534806       0.15000000
H       -3.35930000       1.70490000      -1.30700000       0.15000000
H        3.35901241      -2.13907307       0.20294661       0.15000000
H       -4.59920000      -0.00040000       0.00020000       0.15000000
H        4.59919979      -0.00030974      -0.00150049       0.15000000
