22
Properties=species:S:1:pos:R:3:initial_charges:R:1 pbc="F F F"
C       -0.72340000       0.00030000      -0.00010000       0.00000000
C        0.72340000      -0.00020000      -0.00010000       0.00000000
C       -1.42060000      -0.95860000       0.73490000      -0.15000000
C        1.42003302      -0.90582189       0.79988123      -0.15000000
C       -1.42100000       0.95880000      -0.73500000      -0.15000000
C        1.42166676       0.90498715      -0.79940081      -0.15000000
C       -2.81540000      -0.95880000       0.73500000      -0.15000000
C        2.81493270      -0.90644921       0.80067528      -0.15000000
C       -2.81590000       0.95860000      -0.73490000      -0.15000000
C        2.81646648       0.90435292      -0.79870654      -0.15000000
C       -3.51320000      -0.00020000       0.00010000      -0.15000000
C        3.51309952      -0.00127591       0.00117492      -0.15000000
H       -0.89230000      -1.71300000       1.31310000       0.15000000
H        0.89138697      -1.61810643       1.42904357       0.15000000
H       -0.89310000       1.71340000      -1.31340000       0.15000000
H        0.89411296       1.61771113      -1.42893422       0.15000000
H       -3.35840000      -1.70540000       1.30720000       0.15000000
H        3.35749128      -1.61142098       1.42355967       0.15000000
H       -3.35930000       1.70490000      -1.30700000       0.15000000
H        3.36030777       1.60918868      -1.42103075       0.15000000
H       -4.59920000      -0.00040000       0.00020000       0.15000000
H        4.59919930      -0.00171110       0.00175582       0.15000000
