22
Properties=species:S:1:pos:R:3:initial_charges:R:1 pbc="F F F"
C       -0.72340000       0.00030000      -0.00010000       0.00000000
C        0.72340000      -0.00020000      -0.00010000       0.00000000
C       -1.42060000      -0.95860000       0.73490000      -0.15000000
C        1.42057614       0.66575027       1.00780585      -0.15000000
C       -1.42100000       0.95880000      -0.73500000      -0.15000000
C        1.42112386      -0.66595195      -1.00795801      -0.15000000
C       -2.81540000      -0.95880000       0.73500000      -0.15000000
C        2.81547613       0.66603432       1.00806021      -0.15000000
C       -2.81590000       0.95860000      -0.73490000      -0.15000000
C        2.81592386      -0.66576766      -1.00771067      -0.15000000
C       -3.51320000      -0.00020000       0.00010000      -0.15000000
C        3.51309999       0.00008286       0.00018817      -0.15000000
H       -0.89230000      -1.71300000       1.31310000       0.15000000
H        0.89235736       1.18981596       1.80090183       0.15000000
H       -0.89310000       1.71340000      -1.31340000       0.15000000
H        0.89314264      -1.19000973      -1.80117935       0.15000000
H       -3.35840000      -1.70540000       1.30720000       0.15000000
H        3.35845756       1.18458222       1.79267427       0.15000000
H       -3.35930000       1.70490000      -1.30700000       0.15000000
H        3.35934244      -1.18410295      -1.79248388       0.15000000
H       -4.59920000      -0.00040000       0.00020000       0.15000000
H        4.59919999       0.00027443       0.00032827       0.15000000
