22
Properties=species:S:1:pos:R:3:initial_charges:R:1 pbc="F F F"
C       -0.72340000       0.00030000      -0.00010000       0.00000000
C        0.72340000      -0.00020000      -0.00010000       0.00000000
C       -1.42060000      -0.95860000       0.73490000      -0.15000000
C        1.41999391      -1.01898896      -0.64990345      -0.15000000
C       -1.42100000       0.95880000      -0.73500000      -0.15000000
C        1.42170564       1.01746587       0.64993648      -0.15000000
C       -2.81540000      -0.95880000       0.73500000      -0.15000000
C        2.81489336      -1.02027435      -0.64982421      -0.15000000
C       -2.81590000       0.95860000      -0.73490000      -0.15000000
C        2.81650515       1.01627452       0.64998154      -0.15000000
C       -3.51320000      -0.00020000       0.00010000      -0.15000000
C        3.51309913      -0.00242045       0.00014393      -0.15000000
H       -0.89230000      -1.71300000       1.31310000       0.15000000
H        0.89131720      -1.81997853      -1.16135022       0.15000000
H       -0.89310000       1.71340000      -1.31340000       0.15000000
H        0.89418260       1.81919767       1.16135253       0.15000000
H       -3.35840000      -1.70540000       1.30720000       0.15000000
H        3.35742145      -1.81348166      -1.15561608       0.15000000
H       -3.35930000       1.70490000      -1.30700000       0.15000000
H        3.36037670       1.80863389       1.15615799       0.15000000
H       -4.59920000      -0.00040000       0.00020000       0.15000000
H        4.59919873      -0.00337068       0.00024652       0.15000000
