22
Properties=species:S:1:pos:R:3:initial_charges:R:1 pbc="F F F"
C       -0.72340000       0.00030000      -0.00010000       0.00000000
C        0.72340000      -0.00020000      -0.00010000       0.00000000
C       -1.42060000      -0.95860000       0.73490000      -0.15000000
C        1.42006363      -0.81724131       0.89013694      -0.15000000
C       -1.42100000       0.95880000      -0.73500000      -0.15000000
C        1.42163618       0.81647743      -0.88966519      -0.15000000
C       -2.81540000      -0.95880000       0.73500000      -0.15000000
C        2.81496334      -0.81778484       0.89094183      -0.15000000
C       -2.81590000       0.95860000      -0.73490000      -0.15000000
C        2.81643591       0.81591661      -0.88895883      -0.15000000
C       -3.51320000      -0.00020000       0.00010000      -0.15000000
C        3.51309957      -0.00114203       0.00117963      -0.15000000
H       -0.89230000      -1.71300000       1.31310000       0.15000000
H        0.89144166      -1.45985751       1.59032577       0.15000000
H       -0.89310000       1.71340000      -1.31340000       0.15000000
H        0.89405829       1.45949389      -1.59023084       0.15000000
H       -3.35840000      -1.70540000       1.30720000       0.15000000
H        3.35754576      -1.45378659       1.58408400       0.15000000
H       -3.35930000       1.70490000      -1.30700000       0.15000000
H        3.36025339       1.45183959      -1.58156891       0.15000000
H       -4.59920000      -0.00040000       0.00020000       0.15000000
H        4.59919937      -0.00151617       0.00176360       0.15000000
