22
Properties=species:S:1:pos:R:3:initial_charges:R:1 pbc="F F F"
C       -0.72340000       0.00030000      -0.00010000       0.00000000
C        0.72340000      -0.00020000      -0.00010000       0.00000000
C       -1.42060000      -0.95860000       0.73490000      -0.15000000
C        1.41993833      -1.17980884      -0.26235152      -0.15000000
C       -1.42100000       0.95880000      -0.73500000      -0.15000000
C        1.42176125       1.17840412       0.26258974      -0.15000000
C       -2.81540000      -0.95880000       0.73500000      -0.15000000
C        2.81483781      -1.18101869      -0.26200230      -0.15000000
C       -2.81590000       0.95860000      -0.73490000      -0.15000000
C        2.81656079       1.17727096       0.26287468      -0.15000000
C       -3.51320000      -0.00020000       0.00010000      -0.15000000
C        3.51309918      -0.00226125       0.00055892      -0.15000000
H       -0.89230000      -1.71300000       1.31310000       0.15000000
H        0.89121787      -2.10740691      -0.46893724       0.15000000
H       -0.89310000       1.71340000      -1.31340000       0.15000000
H        0.89428196       2.10671116       0.46901757       0.15000000
H       -3.35840000      -1.70540000       1.30720000       0.15000000
H        3.35732265      -2.09939206      -0.46606246       0.15000000
H       -3.35930000       1.70490000      -1.30700000       0.15000000
H        3.36047565       2.09495642       0.46745782       0.15000000
H       -4.59920000      -0.00040000       0.00020000       0.15000000
H        4.59919881      -0.00314173       0.00085195       0.15000000
