22
Properties=species:S:1:pos:R:3:initial_charges:R:1 pbc="F F F"
C       -0.72340000       0.00030000      -0.00010000       0.00000000
C        0.72340000      -0.00020000      -0.00010000       0.00000000
C       -1.42060000      -0.95860000       0.73490000      -0.15000000
C        1.42076342       1.20768026       0.01121629      -0.15000000
C       -1.42100000       0.95880000      -0.73500000      -0.15000000
C        1.42093649      -1.20814220      -0.01195360      -0.15000000
C       -2.81540000      -0.95880000       0.73500000      -0.15000000
C        2.81566337       1.20783747       0.01072339      -0.15000000
C       -2.81590000       0.95860000      -0.73490000      -0.15000000
C        2.81573645      -1.20804657      -0.01236769      -0.15000000
C       -3.51320000      -0.00020000       0.00010000      -0.15000000
C        3.51309989      -0.00022791      -0.00097263      -0.15000000
H       -0.89230000      -1.71300000       1.31310000       0.15000000
H        0.89269207       2.15832090       0.02039115       0.15000000
H       -0.89310000       1.71340000      -1.31340000       0.15000000
H        0.89280787      -2.15872144      -0.02090251       0.15000000
H       -3.35840000      -1.70540000       1.30720000       0.15000000
H        3.35879057       2.14819759       0.01942277       0.15000000
H       -3.35930000       1.70490000      -1.30700000       0.15000000
H        3.35900912      -2.14858524      -0.02164360       0.15000000
H       -4.59920000      -0.00040000       0.00020000       0.15000000
H        4.59919984      -0.00017008      -0.00136428       0.15000000
