22
Properties=species:S:1:pos:R:3:initial_charges:R:1 pbc="F F F"
C       -0.72340000       0.00030000      -0.00010000       0.00000000
C        0.72340000      -0.00020000      -0.00010000       0.00000000
C       -1.42060000      -0.95860000       0.73490000      -0.15000000
C        1.42042889       0.23967265       1.18397363      -0.15000000
C       -1.42100000       0.95880000      -0.73500000      -0.15000000
C        1.42127109      -0.23994179      -1.18387440      -0.15000000
C       -2.81540000      -0.95880000       0.73500000      -0.15000000
C        2.81532883       0.23980563       1.18449646      -0.15000000
C       -2.81590000       0.95860000      -0.73490000      -0.15000000
C        2.81607103      -0.23989867      -1.18339546      -0.15000000
C       -3.51320000      -0.00020000       0.00010000      -0.15000000
C        3.51309993      -0.00011589       0.00063430      -0.15000000
H       -0.89230000      -1.71300000       1.31310000       0.15000000
H        0.89209425       0.42849223       2.11556949       0.15000000
H       -0.89310000       1.71340000      -1.31340000       0.15000000
H        0.89340575      -0.42868049      -2.11572026       0.15000000
H       -3.35840000      -1.70540000       1.30720000       0.15000000
H        3.35819562       0.42665962       2.10629970       0.15000000
H       -3.35930000       1.70490000      -1.30700000       0.15000000
H        3.35960425      -0.42652326      -2.10512597       0.15000000
H       -4.59920000      -0.00040000       0.00020000       0.15000000
H        4.59919989      -0.00001808       0.00097657       0.15000000
