22
Properties=species:S:1:pos:R:3:initial_charges:R:1 pbc="F F F"
C       -0.72340000       0.00030000      -0.00010000       0.00000000
C        0.72340000      -0.00020000      -0.00010000       0.00000000
C       -1.42060000      -0.95860000       0.73490000      -0.15000000
C        1.42063312       0.83065034       0.87681061      -0.15000000
C       -1.42100000       0.95880000      -0.73500000      -0.15000000
C        1.42106687      -0.83085405      -0.87708165      -0.15000000
C       -2.81540000      -0.95880000       0.73500000      -0.15000000
C        2.81553313       0.83096691       0.87692807      -0.15000000
C       -2.81590000       0.95860000      -0.73490000      -0.15000000
C        2.81586688      -0.83063692      -0.87695377      -0.15000000
C       -3.51320000      -0.00020000       0.00010000      -0.15000000
C        3.51310000       0.00011396      -0.00003274      -0.15000000
H       -0.89230000      -1.71300000       1.31310000       0.15000000
H        0.89245919       1.48447673       1.56688633       0.15000000
H       -0.89310000       1.71340000      -1.31340000       0.15000000
H        0.89304080      -1.48468887      -1.56721881       0.15000000
H       -3.35840000      -1.70540000       1.30720000       0.15000000
H        3.35855892       1.47788085       1.55954461       0.15000000
H       -3.35930000       1.70490000      -1.30700000       0.15000000
H        3.35924109      -1.47737482      -1.55982915       0.15000000
H       -4.59920000      -0.00040000       0.00020000       0.15000000
H        4.59920001       0.00032124       0.00000679       0.15000000
