22
Properties=species:S:1:pos:R:3:initial_charges:R:1 pbc="F F F"
C       -0.72340000       0.00030000      -0.00010000       0.00000000
C        0.72340000      -0.00020000      -0.00010000       0.00000000
C       -1.42060000      -0.95860000       0.73490000      -0.15000000
C        1.42059448       0.71882999      -0.97083903      -0.15000000
C       -1.42100000       0.95880000      -0.73500000      -0.15000000
C        1.42110522      -0.71989980       0.96998332      -0.15000000
C       -2.81540000      -0.95880000       0.73500000      -0.15000000
C        2.81549420       0.71832492      -0.97164593      -0.15000000
C       -2.81590000       0.95860000      -0.73490000      -0.15000000
C        2.81590498      -0.72037730       0.96927258      -0.15000000
C       -3.51320000      -0.00020000       0.00010000      -0.15000000
C        3.51309951      -0.00131979      -0.00137031      -0.15000000
H       -0.89230000      -1.71300000       1.31310000       0.15000000
H        0.89239029       1.28510043      -1.73438292       0.15000000
H       -0.89310000       1.71340000      -1.31340000       0.15000000
H        0.89310954      -1.28580089       1.73390565       0.15000000
H       -3.35840000      -1.70540000       1.30720000       0.15000000
H        3.35848984       1.27801535      -1.72745169       0.15000000
H       -3.35930000       1.70490000      -1.30700000       0.15000000
H        3.35930902      -1.28079386       1.72458017       0.15000000
H       -4.59920000      -0.00040000       0.00020000       0.15000000
H        4.59919929      -0.00175737      -0.00195096       0.15000000
