22
Properties=species:S:1:pos:R:3:initial_charges:R:1 pbc="F F F"
C       -0.72340000       0.00030000      -0.00010000       0.00000000
C        0.72340000      -0.00020000      -0.00010000       0.00000000
C       -1.42060000      -0.95860000       0.73490000      -0.15000000
C        1.42043654       0.26181064      -1.17946806      -0.15000000
C       -1.42100000       0.95880000      -0.73500000      -0.15000000
C        1.42126307      -0.26313093       1.17874540      -0.15000000
C       -2.81540000      -0.95880000       0.73500000      -0.15000000
C        2.81533615       0.26097937      -1.18019584      -0.15000000
C       -2.81590000       0.95860000      -0.73490000      -0.15000000
C        2.81606274      -0.26389790       1.17809427      -0.15000000
C       -3.51320000      -0.00020000       0.00010000      -0.15000000
C        3.51309934      -0.00182301      -0.00119716      -0.15000000
H       -0.89230000      -1.71300000       1.31310000       0.15000000
H        0.89210811       0.46857896      -2.10724879       0.15000000
H       -0.89310000       1.71340000      -1.31340000       0.15000000
H        0.89339169      -0.46937634       2.10687009       0.15000000
H       -3.35840000      -1.70540000       1.30720000       0.15000000
H        3.35820882       0.46485192      -2.09838167       0.15000000
H       -3.35930000       1.70490000      -1.30700000       0.15000000
H        3.35958968      -0.46866889       2.09596764       0.15000000
H       -4.59920000      -0.00040000       0.00020000       0.15000000
H        4.59919904      -0.00249138      -0.00170229       0.15000000
