22
Properties=species:S:1:pos:R:3:initial_charges:R:1 pbc="F F F"
C       -0.72340000       0.00030000      -0.00010000       0.00000000
C        0.72340000      -0.00020000      -0.00010000       0.00000000
C       -1.42060000      -0.95860000       0.73490000      -0.15000000
C        1.41996608      -1.09951167      -0.50182510      -0.15000000
C       -1.42100000       0.95880000      -0.73500000      -0.15000000
C        1.42173348       1.09802726       0.50194508      -0.15000000
C       -2.81540000      -0.95880000       0.73500000      -0.15000000
C        2.81486554      -1.10077822      -0.50163483      -0.15000000
C       -2.81590000       0.95860000      -0.73490000      -0.15000000
C        2.81653300       1.09684909       0.50208842      -0.15000000
C       -3.51320000      -0.00020000       0.00010000      -0.15000000
C        3.51309914      -0.00237427       0.00031641      -0.15000000
H       -0.89230000      -1.71300000       1.31310000       0.15000000
H        0.89126747      -1.96388392      -0.89679289       0.15000000
H       -0.89310000       1.71340000      -1.31340000       0.15000000
H        0.89423234       1.96313379       0.89682994       0.15000000
H       -3.35840000      -1.70540000       1.30720000       0.15000000
H        3.35737197      -1.95666053      -0.89213735       0.15000000
H       -3.35930000       1.70490000      -1.30700000       0.15000000
H        3.36042622       1.95194158       0.89303753       0.15000000
H       -4.59920000      -0.00040000       0.00020000       0.15000000
H        4.59919875      -0.00330464       0.00049801       0.15000000
