22
Properties=species:S:1:pos:R:3:initial_charges:R:1 pbc="F F F"
C       -0.72340000       0.00030000      -0.00010000       0.00000000
C        0.72340000      -0.00020000      -0.00010000       0.00000000
C       -1.42060000      -0.95860000       0.73490000      -0.15000000
C        1.42075007       1.16905624       0.30315111      -0.15000000
C       -1.42100000       0.95880000      -0.73500000      -0.15000000
C        1.42094988      -1.16940068      -0.30377083      -0.15000000
C       -2.81540000      -0.95880000       0.73500000      -0.15000000
C        2.81565006       1.16931371       0.30282751      -0.15000000
C       -2.81590000       0.95860000      -0.73490000      -0.15000000
C        2.81574987      -1.16922203      -0.30403287      -0.15000000
C       -3.51320000      -0.00020000       0.00010000      -0.15000000
C        3.51309995      -0.00004461      -0.00072023      -0.15000000
H       -0.89230000      -1.71300000       1.31310000       0.15000000
H        0.89266819       2.08924462       0.54199006       0.15000000
H       -0.89310000       1.71340000      -1.31340000       0.15000000
H        0.89283176      -2.08957329      -0.54246399       0.15000000
H       -3.35840000      -1.70540000       1.30720000       0.15000000
H        3.35876688       2.07963097       0.53880758       0.15000000
H       -3.35930000       1.70490000      -1.30700000       0.15000000
H        3.35903297      -2.07958421      -0.54052470       0.15000000
H       -4.59920000      -0.00040000       0.00020000       0.15000000
H        4.59919993       0.00009510      -0.00099545       0.15000000
