22
Properties=species:S:1:pos:R:3:initial_charges:R:1 pbc="F F F"
C       -0.72340000       0.00030000      -0.00010000       0.00000000
C        0.72340000      -0.00020000      -0.00010000       0.00000000
C       -1.42060000      -0.95860000       0.73490000      -0.15000000
C        1.42023458      -0.32256626      -1.16453982      -0.15000000
C       -1.42100000       0.95880000      -0.73500000      -0.15000000
C        1.42146496       0.32105189       1.16408407      -0.15000000
C       -2.81540000      -0.95880000       0.73500000      -0.15000000
C        2.81513409      -0.32369833      -1.16501847      -0.15000000
C       -2.81590000       0.95860000      -0.73490000      -0.15000000
C        2.81626453       0.32001259       1.16364293      -0.15000000
C       -3.51320000      -0.00020000       0.00010000      -0.15000000
C        3.51309918      -0.00226097      -0.00075939      -0.15000000
H       -0.89230000      -1.71300000       1.31310000       0.15000000
H        0.89174727      -0.57554594      -2.08070770       0.15000000
H       -0.89310000       1.71340000      -1.31340000       0.15000000
H        0.89375251       0.57469747       2.08048153       0.15000000
H       -3.35840000      -1.70540000       1.30720000       0.15000000
H        3.35784954      -0.57477362      -2.07152888       0.15000000
H       -3.35930000       1.70490000      -1.30700000       0.15000000
H        3.35994867       0.57010396       2.07012298       0.15000000
H       -4.59920000      -0.00040000       0.00020000       0.15000000
H        4.59919881      -0.00313219      -0.00106783       0.15000000
