22
Properties=species:S:1:pos:R:3:initial_charges:R:1 pbc="F F F"
C       -0.72340000       0.00030000      -0.00010000       0.00000000
C        0.72340000      -0.00020000      -0.00010000       0.00000000
C       -1.42060000      -0.95860000       0.73490000      -0.15000000
C        1.42005869      -0.83153205      -0.87701061      -0.15000000
C       -1.42100000       0.95880000      -0.73500000      -0.15000000
C        1.42164084       0.82997163       0.87688165      -0.15000000
C       -2.81540000      -0.95880000       0.73500000      -0.15000000
C        2.81495814      -0.83281276      -0.87712807      -0.15000000
C       -2.81590000       0.95860000      -0.73490000      -0.15000000
C        2.81644036       0.82879045       0.87675377      -0.15000000
C       -3.51320000      -0.00020000       0.00010000      -0.15000000
C        3.51309912      -0.00244214      -0.00016726      -0.15000000
H       -0.89230000      -1.71300000       1.31310000       0.15000000
H        0.89143297      -1.48499322      -1.56708633       0.15000000
H       -0.89310000       1.71340000      -1.31340000       0.15000000
H        0.89406681       1.48417126       1.56701881       0.15000000
H       -3.35840000      -1.70540000       1.30720000       0.15000000
H        3.35753667      -1.48010187      -1.55974461       0.15000000
H       -3.35930000       1.70490000      -1.30700000       0.15000000
H        3.36026145       1.47515263       1.55962915       0.15000000
H       -4.59920000      -0.00040000       0.00020000       0.15000000
H        4.59919872      -0.00340012      -0.00020679       0.15000000
