22
Properties=species:S:1:pos:R:3:initial_charges:R:1 pbc="F F F"
C       -0.72340000       0.00030000      -0.00010000       0.00000000
C        0.72340000      -0.00020000      -0.00010000       0.00000000
C       -1.42060000      -0.95860000       0.73490000      -0.15000000
C        1.41993109      -1.20076089      -0.13763735      -0.15000000
C       -1.42100000       0.95880000      -0.73500000      -0.15000000
C        1.42176851       1.19940484       0.13792780      -0.15000000
C       -2.81540000      -0.95880000       0.73500000      -0.15000000
C        2.81483058      -1.20193025      -0.13721397      -0.15000000
C       -2.81590000       0.95860000      -0.73490000      -0.15000000
C        2.81656806       1.19830503       0.13827925      -0.15000000
C       -3.51320000      -0.00020000       0.00010000      -0.15000000
C        3.51309921      -0.00218637       0.00066999      -0.15000000
H       -0.89230000      -1.71300000       1.31310000       0.15000000
H        0.89120492      -2.14487057      -0.24611187       0.15000000
H       -0.89310000       1.71340000      -1.31340000       0.15000000
H        0.89429491       2.14420509       0.24620935       0.15000000
H       -3.35840000      -1.70540000       1.30720000       0.15000000
H        3.35730979      -2.13660379      -0.24417971       0.15000000
H       -3.35930000       1.70490000      -1.30700000       0.15000000
H        3.36048857       2.13234704       0.24579776       0.15000000
H       -4.59920000      -0.00040000       0.00020000       0.15000000
H        4.59919885      -0.00303345       0.00101422       0.15000000
