22
Properties=species:S:1:pos:R:3:initial_charges:R:1 pbc="F F F"
C       -0.72340000       0.00030000      -0.00010000       0.00000000
C        0.72340000      -0.00020000      -0.00010000       0.00000000
C       -1.42060000      -0.95860000       0.73490000      -0.15000000
C        1.41993191      -1.19837955       0.15683182      -0.15000000
C       -1.42100000       0.95880000      -0.73500000      -0.15000000
C        1.42176773       1.19715623      -0.15644126      -0.15000000
C       -2.81540000      -0.95880000       0.73500000      -0.15000000
C        2.81483145      -1.19942607       0.15740889      -0.15000000
C       -2.81590000       0.95860000      -0.73490000      -0.15000000
C        2.81656732       1.19615979      -0.15595080      -0.15000000
C       -3.51320000      -0.00020000       0.00010000      -0.15000000
C        3.51309928      -0.00196972       0.00089443      -0.15000000
H       -0.89230000      -1.71300000       1.31310000       0.15000000
H        0.89120637      -2.14068207       0.28002444       0.15000000
H       -0.89310000       1.71340000      -1.31340000       0.15000000
H        0.89429349       2.14009297      -0.27989989       0.15000000
H       -3.35840000      -1.70540000       1.30720000       0.15000000
H        3.35731130      -2.13221873       0.27969312       0.15000000
H       -3.35930000       1.70490000      -1.30700000       0.15000000
H        3.36048723       2.12846226      -0.27763672       0.15000000
H       -4.59920000      -0.00040000       0.00020000       0.15000000
H        4.59919896      -0.00271951       0.00134255       0.15000000
