22
Properties=species:S:1:pos:R:3:initial_charges:R:1 pbc="F F F"
C       -0.72340000       0.00030000      -0.00010000       0.00000000
C        0.72340000      -0.00020000      -0.00010000       0.00000000
C       -1.42060000      -0.95860000       0.73490000      -0.15000000
C        1.42028393      -0.17978498       1.19468892      -0.15000000
C       -1.42100000       0.95880000      -0.73500000      -0.15000000
C        1.42141600       0.17937653      -1.19439810      -0.15000000
C       -2.81540000      -0.95880000       0.73500000      -0.15000000
C        2.81518380      -0.17986791       1.19539057      -0.15000000
C       -2.81590000       0.95860000      -0.73490000      -0.15000000
C        2.81621588       0.17922417      -1.19376843      -0.15000000
C       -3.51320000      -0.00020000       0.00010000      -0.15000000
C        3.51309982      -0.00043025       0.00094852      -0.15000000
H       -0.89230000      -1.71300000       1.31310000       0.15000000
H        0.89183525      -0.32096613       2.13462032       0.15000000
H       -0.89310000       1.71340000      -1.31340000       0.15000000
H        0.89366474       0.32074120      -2.13466160       0.15000000
H       -3.35840000      -1.70540000       1.30720000       0.15000000
H        3.35793774      -0.31956916       2.12557426       0.15000000
H       -3.35930000       1.70490000      -1.30700000       0.15000000
H        3.35986193       0.31909347      -2.12367691       0.15000000
H       -4.59920000      -0.00040000       0.00020000       0.15000000
H        4.59919973      -0.00047804       0.00143198       0.15000000
