22
Properties=species:S:1:pos:R:3:initial_charges:R:1 pbc="F F F"
C       -0.72340000       0.00030000      -0.00010000       0.00000000
C        0.72340000      -0.00020000      -0.00010000       0.00000000
C       -1.42060000      -0.95860000       0.73490000      -0.15000000
C        1.42076330       1.20733924      -0.03095343      -0.15000000
C       -1.42100000       0.95880000      -0.73500000      -0.15000000
C        1.42093660      -1.20782019       0.03020178      -0.15000000
C       -2.81540000      -0.95880000       0.73500000      -0.15000000
C        2.81566325       1.20747886      -0.03146834      -0.15000000
C       -2.81590000       0.95860000      -0.73490000      -0.15000000
C        2.81573656      -1.20773936       0.02976778      -0.15000000
C       -3.51320000      -0.00020000       0.00010000      -0.15000000
C        3.51309988      -0.00025893      -0.00100477      -0.15000000
H       -0.89230000      -1.71300000       1.31310000       0.15000000
H        0.89269186       2.15772108      -0.05495466       0.15000000
H       -0.89310000       1.71340000      -1.31340000       0.15000000
H        0.89280807      -2.15813256       0.05443943       0.15000000
H       -3.35840000      -1.70540000       1.30720000       0.15000000
H        3.35879035       2.14756962      -0.05559890       0.15000000
H       -3.35930000       1.70490000      -1.30700000       0.15000000
H        3.35900931      -2.14802892       0.05331530       0.15000000
H       -4.59920000      -0.00040000       0.00020000       0.15000000
H        4.59919982      -0.00021504      -0.00141130       0.15000000
