22
Properties=species:S:1:pos:R:3:initial_charges:R:1 pbc="F F F"
C       -0.72340000       0.00030000      -0.00010000       0.00000000
C        0.72340000      -0.00020000      -0.00010000       0.00000000
C       -1.42060000      -0.95860000       0.73490000      -0.15000000
C        1.42072574       1.09862996       0.50162510      -0.15000000
C       -1.42100000       0.95880000      -0.73500000      -0.15000000
C        1.42097424      -1.09890967      -0.50214508      -0.15000000
C       -2.81540000      -0.95880000       0.73500000      -0.15000000
C        2.81562574       1.09893238       0.50143483      -0.15000000
C       -2.81590000       0.95860000      -0.73490000      -0.15000000
C        2.81577424      -1.09869556      -0.50228842      -0.15000000
C       -3.51320000      -0.00020000       0.00010000      -0.15000000
C        3.51309998       0.00004609      -0.00051641      -0.15000000
H       -0.89230000      -1.71300000       1.31310000       0.15000000
H        0.89262469       1.96336743       0.89659289       0.15000000
H       -0.89310000       1.71340000      -1.31340000       0.15000000
H        0.89287528      -1.96365140      -0.89702994       0.15000000
H       -3.35840000      -1.70540000       1.30720000       0.15000000
H        3.35872361       1.95443952       0.89193735       0.15000000
H       -3.35930000       1.70490000      -1.30700000       0.15000000
H        3.35907631      -1.95416377      -0.89323753       0.15000000
H       -4.59920000      -0.00040000       0.00020000       0.15000000
H        4.59919997       0.00022576      -0.00069801       0.15000000
