22
Properties=species:S:1:pos:R:3:initial_charges:R:1 pbc="F F F"
C       -0.72340000       0.00030000      -0.00010000       0.00000000
C        0.72340000      -0.00020000      -0.00010000       0.00000000
C       -1.42060000      -0.95860000       0.73490000      -0.15000000
C        1.42024111      -0.30369195       1.16939717      -0.15000000
C       -1.42100000       0.95880000      -0.73500000      -0.15000000
C        1.42145880       0.30322960      -1.16905954      -0.15000000
C       -2.81540000      -0.95880000       0.73500000      -0.15000000
C        2.81514095      -0.30385041       1.17013670      -0.15000000
C       -2.81590000       0.95860000      -0.73490000      -0.15000000
C        2.81625866       0.30300962      -1.16839886      -0.15000000
C       -3.51320000      -0.00020000       0.00010000      -0.15000000
C        3.51309978      -0.00054387       0.00101949      -0.15000000
H       -0.89230000      -1.71300000       1.31310000       0.15000000
H        0.89175874      -0.54234828       2.08940299       0.15000000
H       -0.89310000       1.71340000      -1.31340000       0.15000000
H        0.89374124       0.54210515      -2.08941461       0.15000000
H       -3.35840000      -1.70540000       1.30720000       0.15000000
H        3.35786155      -0.54001806       2.08064160       0.15000000
H       -3.35930000       1.70490000      -1.30700000       0.15000000
H        3.35993803       0.53931357      -2.07857324       0.15000000
H       -4.59920000      -0.00040000       0.00020000       0.15000000
H        4.59919967      -0.00064399       0.00153454       0.15000000
