22
Properties=species:S:1:pos:R:3:initial_charges:R:1 pbc="F F F"
C       -0.72340000       0.00030000      -0.00010000       0.00000000
C        0.72340000      -0.00020000      -0.00010000       0.00000000
C       -1.42060000      -0.95860000       0.73490000      -0.15000000
C        1.42056384       0.63016904       1.03044159      -0.15000000
C       -1.42100000       0.95880000      -0.73500000      -0.15000000
C        1.42113616      -0.63037281      -1.03057004      -0.15000000
C       -2.81540000      -0.95880000       0.73500000      -0.15000000
C        2.81546383       0.63044375       1.03072253      -0.15000000
C       -2.81590000       0.95860000      -0.73490000      -0.15000000
C        2.81593615      -0.63019755      -1.03029960      -0.15000000
C       -3.51320000      -0.00020000       0.00010000      -0.15000000
C        3.51309999       0.00007204       0.00023151      -0.15000000
H       -0.89230000      -1.71300000       1.31310000       0.15000000
H        0.89233539       1.12623695       1.84133770       0.15000000
H       -0.89310000       1.71340000      -1.31340000       0.15000000
H        0.89316462      -1.12642821      -1.84160389       0.15000000
H       -3.35840000      -1.70540000       1.30720000       0.15000000
H        3.35843568       1.12129301       1.83296224       0.15000000
H       -3.35930000       1.70490000      -1.30700000       0.15000000
H        3.35936430      -1.12082901      -1.83267783       0.15000000
H       -4.59920000      -0.00040000       0.00020000       0.15000000
H        4.59919999       0.00025838       0.00039131       0.15000000
