22
Properties=species:S:1:pos:R:3:initial_charges:R:1 pbc="F F F"
C       -0.72340000       0.00030000      -0.00010000       0.00000000
C        0.72340000      -0.00020000      -0.00010000       0.00000000
C       -1.42060000      -0.95860000       0.73490000      -0.15000000
C        1.42020678      -0.40300879      -1.13923297      -0.15000000
C       -1.42100000       0.95880000      -0.73500000      -0.15000000
C        1.42149276       0.40147812       1.13882195      -0.15000000
C       -2.81540000      -0.95880000       0.73500000      -0.15000000
C        2.81510628      -0.40417267      -1.13966511      -0.15000000
C       -2.81590000       0.95860000      -0.73490000      -0.15000000
C        2.81629232       0.40040940       1.13842076      -0.15000000
C       -3.51320000      -0.00020000       0.00010000      -0.15000000
C        3.51309917      -0.00230429      -0.00068127      -0.15000000
H       -0.89230000      -1.71300000       1.31310000       0.15000000
H        0.89169759      -0.71928042      -2.03550940       0.15000000
H       -0.89310000       1.71340000      -1.31340000       0.15000000
H        0.89380218       0.71843093       2.03530641       0.15000000
H       -3.35840000      -1.70540000       1.30720000       0.15000000
H        3.35780009      -0.71787177      -2.02646626       0.15000000
H       -3.35930000       1.70490000      -1.30700000       0.15000000
H        3.35999810       0.71312396       2.02523407       0.15000000
H       -4.59920000      -0.00040000       0.00020000       0.15000000
H        4.59919879      -0.00319582      -0.00095436       0.15000000
