22
Properties=species:S:1:pos:R:3:initial_charges:R:1 pbc="F F F"
C       -0.72340000       0.00030000      -0.00010000       0.00000000
C        0.72340000      -0.00020000      -0.00010000       0.00000000
C       -1.42060000      -0.95860000       0.73490000      -0.15000000
C        1.42075640       1.18736114       0.22083241      -0.15000000
C       -1.42100000       0.95880000      -0.73500000      -0.15000000
C        1.42094354      -1.18773615      -0.22148861      -0.15000000
C       -2.81540000      -0.95880000       0.73500000      -0.15000000
C        2.81565638       1.18759423       0.22045801      -0.15000000
C       -2.81590000       0.95860000      -0.73490000      -0.15000000
C        2.81574352      -1.18757739      -0.22179610      -0.15000000
C       -3.51320000      -0.00020000       0.00010000      -0.15000000
C        3.51309993      -0.00009060      -0.00079681      -0.15000000
H       -0.89230000      -1.71300000       1.31310000       0.15000000
H        0.89267950       2.12196898       0.39491320       0.15000000
H       -0.89310000       1.71340000      -1.31340000       0.15000000
H        0.89282045      -2.12231722      -0.39539960       0.15000000
H       -3.35840000      -1.70540000       1.30720000       0.15000000
H        3.35877812       2.11215468       0.39234963       0.15000000
H       -3.35930000       1.70490000      -1.30700000       0.15000000
H        3.35902169      -2.11221927      -0.39422129       0.15000000
H       -4.59920000      -0.00040000       0.00020000       0.15000000
H        4.59919991       0.00002865      -0.00110729       0.15000000
