22
Properties=species:S:1:pos:R:3:initial_charges:R:1 pbc="F F F"
C       -0.72340000       0.00030000      -0.00010000       0.00000000
C        0.72340000      -0.00020000      -0.00010000       0.00000000
C       -1.42060000      -0.95860000       0.73490000      -0.15000000
C        1.42047121       0.36212667       1.15238846      -0.15000000
C       -1.42100000       0.95880000      -0.73500000      -0.15000000
C        1.42122878      -0.36236790      -1.15235493      -0.15000000
C       -2.81540000      -0.95880000       0.73500000      -0.15000000
C        2.81537117       0.36231093       1.15284413      -0.15000000
C       -2.81590000       0.95860000      -0.73490000      -0.15000000
C        2.81602874      -0.36227759      -1.15193351      -0.15000000
C       -3.51320000      -0.00020000       0.00010000      -0.15000000
C        3.51309995      -0.00004487       0.00052071      -0.15000000
H       -0.89230000      -1.71300000       1.31310000       0.15000000
H        0.89216987       0.64729115       2.05916300       0.15000000
H       -0.89310000       1.71340000      -1.31340000       0.15000000
H        0.89333014      -0.64747608      -2.05934841       0.15000000
H       -3.35840000      -1.70540000       1.30720000       0.15000000
H        3.35827091       0.64449496       2.05004646       0.15000000
H       -3.35930000       1.70490000      -1.30700000       0.15000000
H        3.35952901      -0.64422793      -2.04912673       0.15000000
H       -4.59920000      -0.00040000       0.00020000       0.15000000
H        4.59919993       0.00008612       0.00081165       0.15000000
