22
Properties=species:S:1:pos:R:3:initial_charges:R:1 pbc="F F F"
C       -0.72340000       0.00030000      -0.00010000       0.00000000
C        0.72340000      -0.00020000      -0.00010000       0.00000000
C       -1.42060000      -0.95860000       0.73490000      -0.15000000
C        1.42001449      -0.95942029       0.73477632      -0.15000000
C       -1.42100000       0.95880000      -0.73500000      -0.15000000
C        1.42168527       0.95853797      -0.73429426      -0.15000000
C       -2.81540000      -0.95880000       0.73500000      -0.15000000
C        2.81491415      -0.96010265       0.73555831      -0.15000000
C       -2.81590000       0.95860000      -0.73490000      -0.15000000
C        2.81648497       0.95785568      -0.73361230      -0.15000000
C       -3.51320000      -0.00020000       0.00010000      -0.15000000
C        3.51309949      -0.00136457       0.00116402      -0.15000000
H       -0.89230000      -1.71300000       1.31310000       0.15000000
H        0.89135388      -1.71385744       1.31270686       0.15000000
H       -0.89310000       1.71340000      -1.31340000       0.15000000
H        0.89414605       1.71344027      -1.31258977       0.15000000
H       -3.35840000      -1.70540000       1.30720000       0.15000000
H        3.35745832      -1.70680782       1.30776212       0.15000000
H       -3.35930000       1.70490000      -1.30700000       0.15000000
H        3.36034067       1.70438518      -1.30524059       0.15000000
H       -4.59920000      -0.00040000       0.00020000       0.15000000
H        4.59919926      -0.00184014       0.00173932       0.15000000
