22
Properties=species:S:1:pos:R:3:initial_charges:R:1 pbc="F F F"
C       -0.72340000       0.00030000      -0.00010000       0.00000000
C        0.72340000      -0.00020000      -0.00010000       0.00000000
C       -1.42060000      -0.95860000       0.73490000      -0.15000000
C        1.41996290      -1.10871717       0.48094922      -0.15000000
C       -1.42100000       0.95880000      -0.73500000      -0.15000000
C        1.42173681       1.10766985      -0.48048748      -0.15000000
C       -2.81540000      -0.95880000       0.73500000      -0.15000000
C        2.81486250      -1.10958276       0.48165952      -0.15000000
C       -2.81590000       0.95860000      -0.73490000      -0.15000000
C        2.81653645       1.10682853      -0.47987423      -0.15000000
C       -3.51320000      -0.00020000       0.00010000      -0.15000000
C        3.51309939      -0.00166441       0.00107797      -0.15000000
H       -0.89230000      -1.71300000       1.31310000       0.15000000
H        0.89126171      -1.98055292       0.85915369       0.15000000
H       -0.89310000       1.71340000      -1.31340000       0.15000000
H        0.89423819       1.98005608      -0.85902186       0.15000000
H       -3.35840000      -1.70540000       1.30720000       0.15000000
H        3.35736648      -1.97254179       0.85626748       0.15000000
H       -3.35930000       1.70490000      -1.30700000       0.15000000
H        3.36043228       1.96946672      -0.85387542       0.15000000
H       -4.59920000      -0.00040000       0.00020000       0.15000000
H        4.59919911      -0.00227618       0.00161194       0.15000000
