22
Properties=species:S:1:pos:R:3:initial_charges:R:1 pbc="F F F"
C       -0.72340000       0.00030000      -0.00010000       0.00000000
C        0.72340000      -0.00020000      -0.00010000       0.00000000
C       -1.42060000      -0.95860000       0.73490000      -0.15000000
C        1.42049238       0.42339473      -1.13149217      -0.15000000
C       -1.42100000       0.95880000      -0.73500000      -0.15000000
C        1.42120726      -0.42463801       1.13071361      -0.15000000
C       -2.81540000      -0.95880000       0.73500000      -0.15000000
C        2.81539203       0.42266814      -1.13226148      -0.15000000
C       -2.81590000       0.95860000      -0.73490000      -0.15000000
C        2.81600696      -0.42531159       1.13002916      -0.15000000
C       -3.51320000      -0.00020000       0.00010000      -0.15000000
C        3.51309939      -0.00166390      -0.00127819      -0.15000000
H       -0.89230000      -1.71300000       1.31310000       0.15000000
H        0.89220788       0.75727468      -2.02149263       0.15000000
H       -0.89310000       1.71340000      -1.31340000       0.15000000
H        0.89329193      -0.75804447       2.02107665       0.15000000
H       -3.35840000      -1.70540000       1.30720000       0.15000000
H        3.35830818       0.75234156      -2.01311190       0.15000000
H       -3.35930000       1.70490000      -1.30700000       0.15000000
H        3.35949044      -0.75583487       2.01049738       0.15000000
H       -4.59920000      -0.00040000       0.00020000       0.15000000
H        4.59919912      -0.00225912      -0.00181918       0.15000000
