22
Properties=species:S:1:pos:R:3:initial_charges:R:1 pbc="F F F"
C       -0.72340000       0.00030000      -0.00010000       0.00000000
C        0.72340000      -0.00020000      -0.00010000       0.00000000
C       -1.42060000      -0.95860000       0.73490000      -0.15000000
C        1.42046475       0.34344036      -1.15830144      -0.15000000
C       -1.42100000       0.95880000      -0.73500000      -0.15000000
C        1.42123488      -0.34472313       1.15754948      -0.15000000
C       -2.81540000      -0.95880000       0.73500000      -0.15000000
C        2.81536438       0.34266070      -1.15905181      -0.15000000
C       -2.81590000       0.95860000      -0.73490000      -0.15000000
C        2.81603456      -0.34544398       1.15688006      -0.15000000
C       -3.51320000      -0.00020000       0.00010000      -0.15000000
C        3.51309936      -0.00174487      -0.00124045      -0.15000000
H       -0.89230000      -1.71300000       1.31310000       0.15000000
H        0.89215851       0.61442416      -2.06941145       0.15000000
H       -0.89310000       1.71340000      -1.31340000       0.15000000
H        0.89334129      -0.61520839       2.06901363       0.15000000
H       -3.35840000      -1.70540000       1.30720000       0.15000000
H        3.35825901       0.61008558      -2.06076647       0.15000000
H       -3.35930000       1.70490000      -1.30700000       0.15000000
H        3.35953955      -0.61374422       2.05824654       0.15000000
H       -4.59920000      -0.00040000       0.00020000       0.15000000
H        4.59919907      -0.00237730      -0.00176479       0.15000000
