22
Properties=species:S:1:pos:R:3:initial_charges:R:1 pbc="F F F"
C       -0.72340000       0.00030000      -0.00010000       0.00000000
C        0.72340000      -0.00020000      -0.00010000       0.00000000
C       -1.42060000      -0.95860000       0.73490000      -0.15000000
C        1.42032743      -0.05391307       1.20689030      -0.15000000
C       -1.42100000       0.95880000      -0.73500000      -0.15000000
C        1.42137252       0.05355333      -1.20665168      -0.15000000
C       -2.81540000      -0.95880000       0.73500000      -0.15000000
C        2.81522732      -0.05392484       1.20754639      -0.15000000
C       -2.81590000       0.95860000      -0.73490000      -0.15000000
C        2.81617242       0.05346498      -1.20605993      -0.15000000
C       -3.51320000      -0.00020000       0.00010000      -0.15000000
C        3.51309985      -0.00032467       0.00086607      -0.15000000
H       -0.89230000      -1.71300000       1.31310000       0.15000000
H        0.89191297      -0.09607024       2.15644920       0.15000000
H       -0.89310000       1.71340000      -1.31340000       0.15000000
H        0.89358703       0.09586029      -2.15652189       0.15000000
H       -3.35840000      -1.70540000       1.30720000       0.15000000
H        3.35801513      -0.09563116       2.14721759       0.15000000
H       -3.35930000       1.70490000      -1.30700000       0.15000000
H        3.35978461       0.09536514      -2.14551422       0.15000000
H       -4.59920000      -0.00040000       0.00020000       0.15000000
H        4.59919978      -0.00032372       0.00131264       0.15000000
