22
Properties=species:S:1:pos:R:3:initial_charges:R:1 pbc="F F F"
C       -0.72340000       0.00030000      -0.00010000       0.00000000
C        0.72340000      -0.00020000      -0.00010000       0.00000000
C       -1.42060000      -0.95860000       0.73490000      -0.15000000
C        1.42059987       0.73443542       0.95887949      -0.15000000
C       -1.42100000       0.95880000      -0.73500000      -0.15000000
C        1.42110013      -0.73463542      -0.95907923      -0.15000000
C       -2.81540000      -0.95880000       0.73500000      -0.15000000
C        2.81549987       0.73473534       0.95907979      -0.15000000
C       -2.81590000       0.95860000      -0.73490000      -0.15000000
C        2.81590013      -0.73443550      -0.95887897      -0.15000000
C       -3.51320000      -0.00020000       0.00010000      -0.15000000
C        3.51310000       0.00009992       0.00010048      -0.15000000
H       -0.89230000      -1.71300000       1.31310000       0.15000000
H        0.89239977       1.31254853       1.71349929       0.15000000
H       -0.89310000       1.71340000      -1.31340000       0.15000000
H        0.89310023      -1.31274849      -1.71379917       0.15000000
H       -3.35840000      -1.70540000       1.30720000       0.15000000
H        3.35849978       1.30675153       1.70559741       0.15000000
H       -3.35930000       1.70490000      -1.30700000       0.15000000
H        3.35930022      -1.30625161      -1.70559638       0.15000000
H       -4.59920000      -0.00040000       0.00020000       0.15000000
H        4.59920000       0.00029989       0.00020070       0.15000000
