22
Properties=species:S:1:pos:R:3:initial_charges:R:1 pbc="F F F"
C       -0.72340000       0.00030000      -0.00010000       0.00000000
C        0.72340000      -0.00020000      -0.00010000       0.00000000
C       -1.42060000      -0.95860000       0.73490000      -0.15000000
C        1.42051930       0.50128421      -1.09917088      -0.15000000
C       -1.42100000       0.95880000      -0.73500000      -0.15000000
C        1.42118035      -0.50248626       1.09836853      -0.15000000
C       -2.81540000      -0.95880000       0.73500000      -0.15000000
C        2.81541896       0.50061188      -1.09995537      -0.15000000
C       -2.81590000       0.95860000      -0.73490000      -0.15000000
C        2.81598007      -0.50311162       1.09767239      -0.15000000
C       -3.51320000      -0.00020000       0.00010000      -0.15000000
C        3.51309942      -0.00158050      -0.00131018      -0.15000000
H       -0.89230000      -1.71300000       1.31310000       0.15000000
H        0.89225597       0.89643458      -1.96372579       0.15000000
H       -0.89310000       1.71340000      -1.31340000       0.15000000
H        0.89324384      -0.89718869       1.96329271       0.15000000
H       -3.35840000      -1.70540000       1.30720000       0.15000000
H        3.35835607       0.89092679      -1.95565014       0.15000000
H       -3.35930000       1.70490000      -1.30700000       0.15000000
H        3.35944261      -0.89424857       1.95295279       0.15000000
H       -4.59920000      -0.00040000       0.00020000       0.15000000
H        4.59919916      -0.00213745      -0.00186520       0.15000000
