22
Properties=species:S:1:pos:R:3:initial_charges:R:1 pbc="F F F"
C       -0.72340000       0.00030000      -0.00010000       0.00000000
C        0.72340000      -0.00020000      -0.00010000       0.00000000
C       -1.42060000      -0.95860000       0.73490000      -0.15000000
C        1.41992878      -1.20743109      -0.05357221      -0.15000000
C       -1.42100000       0.95880000      -0.73500000      -0.15000000
C        1.42177083       1.20611041       0.05389454      -0.15000000
C       -2.81540000      -0.95880000       0.73500000      -0.15000000
C        2.81482829      -1.20856924      -0.05310193      -0.15000000
C       -2.81590000       0.95860000      -0.73490000      -0.15000000
C        2.81657039       1.20503662       0.05428822      -0.15000000
C       -3.51320000      -0.00020000       0.00010000      -0.15000000
C        3.51309923      -0.00213016       0.00073943      -0.15000000
H       -0.89230000      -1.71300000       1.31310000       0.15000000
H        0.89120080      -2.15680732      -0.09591200       0.15000000
H       -0.89310000       1.71340000      -1.31340000       0.15000000
H        0.89429905       2.15616296       0.09601910       0.15000000
H       -3.35840000      -1.70540000       1.30720000       0.15000000
H        3.35730570      -2.14842797      -0.09462065       0.15000000
H       -3.35930000       1.70490000      -1.30700000       0.15000000
H        3.36049270       2.14430300       0.09637624       0.15000000
H       -4.59920000      -0.00040000       0.00020000       0.15000000
H        4.59919888      -0.00295208       0.00111572       0.15000000
