22
Properties=species:S:1:pos:R:3:initial_charges:R:1 pbc="F F F"
C       -0.72340000       0.00030000      -0.00010000       0.00000000
C        0.72340000      -0.00020000      -0.00010000       0.00000000
C       -1.42060000      -0.95860000       0.73490000      -0.15000000
C        1.42067251       0.94460458       0.75261103      -0.15000000
C       -1.42100000       0.95880000      -0.73500000      -0.15000000
C        1.42102749      -0.94482477      -0.75297579      -0.15000000
C       -2.81540000      -0.95880000       0.73500000      -0.15000000
C        2.81557252       0.94492973       0.75261620      -0.15000000
C       -2.81590000       0.95860000      -0.73490000      -0.15000000
C        2.81582750      -0.94459666      -0.75294645      -0.15000000
C       -3.51320000      -0.00020000       0.00010000      -0.15000000
C        3.51310000       0.00011088      -0.00021127      -0.15000000
H       -0.89230000      -1.71300000       1.31310000       0.15000000
H        0.89252957       1.68810972       1.34500135       0.15000000
H       -0.89310000       1.71340000      -1.31340000       0.15000000
H        0.89297042      -1.68834327      -1.34537497       0.15000000
H       -3.35840000      -1.70540000       1.30720000       0.15000000
H        3.35862896       1.68054797       1.33853043       0.15000000
H       -3.35930000       1.70490000      -1.30700000       0.15000000
H        3.35917103      -1.68008025      -1.33919376       0.15000000
H       -4.59920000      -0.00040000       0.00020000       0.15000000
H        4.59920001       0.00031800      -0.00025321       0.15000000
