22
Properties=species:S:1:pos:R:3:initial_charges:R:1 pbc="F F F"
C       -0.72340000       0.00030000      -0.00010000       0.00000000
C        0.72340000      -0.00020000      -0.00010000       0.00000000
C       -1.42060000      -0.95860000       0.73490000      -0.15000000
C        1.42003825      -0.89067774      -0.81690051      -0.15000000
C       -1.42100000       0.95880000      -0.73500000      -0.15000000
C        1.42166128       0.88912393       0.81681869      -0.15000000
C       -2.81540000      -0.95880000       0.73500000      -0.15000000
C        2.81493770      -0.89196470      -0.81696197      -0.15000000
C       -2.81590000       0.95860000      -0.73490000      -0.15000000
C        2.81646080       0.88793554       0.81673989      -0.15000000
C       -3.51320000      -0.00020000       0.00010000      -0.15000000
C        3.51309912      -0.00244372      -0.00007794      -0.15000000
H       -0.89230000      -1.71300000       1.31310000       0.15000000
H        0.89139645      -1.59068392      -1.45969935       0.15000000
H       -0.89310000       1.71340000      -1.31340000       0.15000000
H        0.89410334       1.58987194       1.45965278       0.15000000
H       -3.35840000      -1.70540000       1.30720000       0.15000000
H        3.35750031      -1.58529442      -1.45277616       0.15000000
H       -3.35930000       1.70490000      -1.30700000       0.15000000
H        3.36029781       1.58035772       1.45285077       0.15000000
H       -4.59920000      -0.00040000       0.00020000       0.15000000
H        4.59919872      -0.00340304      -0.00007674       0.15000000
