22
Properties=species:S:1:pos:R:3:initial_charges:R:1 pbc="F F F"
C       -0.72340000       0.00030000      -0.00010000       0.00000000
C        0.72340000      -0.00020000      -0.00010000       0.00000000
C       -1.42060000      -0.95860000       0.73490000      -0.15000000
C        1.41994174      -1.16993796      -0.30335111      -0.15000000
C       -1.42100000       0.95880000      -0.73500000      -0.15000000
C        1.42175784       1.16851826       0.30357083      -0.15000000
C       -2.81540000      -0.95880000       0.73500000      -0.15000000
C        2.81484122      -1.17115955      -0.30302751      -0.15000000
C       -2.81590000       0.95860000      -0.73490000      -0.15000000
C        2.81655737       1.16737556       0.30383287      -0.15000000
C       -3.51320000      -0.00020000       0.00010000      -0.15000000
C        3.51309918      -0.00228358       0.00052023      -0.15000000
H       -0.89230000      -1.71300000       1.31310000       0.15000000
H        0.89122397      -2.08976111      -0.54219006       0.15000000
H       -0.89310000       1.71340000      -1.31340000       0.15000000
H        0.89427586       2.08905568       0.54226399       0.15000000
H       -3.35840000      -1.70540000       1.30720000       0.15000000
H        3.35732871      -2.08185199      -0.53900758       0.15000000
H       -3.35930000       1.70490000      -1.30700000       0.15000000
H        3.36046957       2.07736202       0.54032470       0.15000000
H       -4.59920000      -0.00040000       0.00020000       0.15000000
H        4.59919880      -0.00317397       0.00079545       0.15000000
