22
Properties=species:S:1:pos:R:3:initial_charges:R:1 pbc="F F F"
C       -0.72340000       0.00030000      -0.00010000       0.00000000
C        0.72340000      -0.00020000      -0.00010000       0.00000000
C       -1.42060000      -0.95860000       0.73490000      -0.15000000
C        1.42066826       0.93230758      -0.76799656      -0.15000000
C       -1.42100000       0.95880000      -0.73500000      -0.15000000
C        1.42103150      -0.93321319       0.76711490      -0.15000000
C       -2.81540000      -0.95880000       0.73500000      -0.15000000
C        2.81556805       0.93199840      -0.76878506      -0.15000000
C       -2.81590000       0.95860000      -0.73490000      -0.15000000
C        2.81583132      -0.93351888       0.76642637      -0.15000000
C       -3.51320000      -0.00020000       0.00010000      -0.15000000
C        3.51309962      -0.00100785      -0.00137024      -0.15000000
H       -0.89230000      -1.71300000       1.31310000       0.15000000
H        0.89252209       1.66648077      -1.37191088       0.15000000
H       -0.89310000       1.71340000      -1.31340000       0.15000000
H        0.89297776      -1.66710871       1.37139747       0.15000000
H       -3.35840000      -1.70540000       1.30720000       0.15000000
H        3.35862113       1.65790401      -1.36669339       0.15000000
H       -3.35930000       1.70490000      -1.30700000       0.15000000
H        3.35917797      -1.66001968       1.36376650       0.15000000
H       -4.59920000      -0.00040000       0.00020000       0.15000000
H        4.59919945      -0.00130311      -0.00194870       0.15000000
