22
Properties=species:S:1:pos:R:3:initial_charges:R:1 pbc="F F F"
C       -0.72340000       0.00030000      -0.00010000       0.00000000
C        0.72340000      -0.00020000      -0.00010000       0.00000000
C       -1.42060000      -0.95860000       0.73490000      -0.15000000
C        1.42045723       0.32168454       1.16433982      -0.15000000
C       -1.42100000       0.95880000      -0.73500000      -0.15000000
C        1.42124275      -0.32193430      -1.16428407      -0.15000000
C       -2.81540000      -0.95880000       0.73500000      -0.15000000
C        2.81535719       0.32185249       1.16481847      -0.15000000
C       -2.81590000       0.95860000      -0.73490000      -0.15000000
C        2.81604271      -0.32185906      -1.16384293      -0.15000000
C       -3.51320000      -0.00020000       0.00010000      -0.15000000
C        3.51309994      -0.00006722       0.00055939      -0.15000000
H       -0.89230000      -1.71300000       1.31310000       0.15000000
H        0.89214490       0.57502945       2.08050770       0.15000000
H       -0.89310000       1.71340000      -1.31340000       0.15000000
H        0.89335511      -0.57521508      -2.08068153       0.15000000
H       -3.35840000      -1.70540000       1.30720000       0.15000000
H        3.35824604       0.57255260       2.07132888       0.15000000
H       -3.35930000       1.70490000      -1.30700000       0.15000000
H        3.35955386      -0.57232616      -2.07032298       0.15000000
H       -4.59920000      -0.00040000       0.00020000       0.15000000
H        4.59919991       0.00005331       0.00086783       0.15000000
