22
Properties=species:S:1:pos:R:3:initial_charges:R:1 pbc="F F F"
C       -0.72340000       0.00030000      -0.00010000       0.00000000
C        0.72340000      -0.00020000      -0.00010000       0.00000000
C       -1.42060000      -0.95860000       0.73490000      -0.15000000
C        1.42049869       0.44163700       1.12428962      -0.15000000
C       -1.42100000       0.95880000      -0.73500000      -0.15000000
C        1.42120131      -0.44186350      -1.12430137      -0.15000000
C       -2.81540000      -0.95880000       0.73500000      -0.15000000
C        2.81539866       0.44185142       1.12469770      -0.15000000
C       -2.81590000       0.95860000      -0.73490000      -0.15000000
C        2.81600128      -0.44174519      -1.12392089      -0.15000000
C       -3.51320000      -0.00020000       0.00010000      -0.15000000
C        3.51309996      -0.00000430       0.00044112      -0.15000000
H       -0.89230000      -1.71300000       1.31310000       0.15000000
H        0.89221897       0.78936067       2.00897597       0.15000000
H       -0.89310000       1.71340000      -1.31340000       0.15000000
H        0.89328104      -0.78954539      -2.00918458       0.15000000
H       -3.35840000      -1.70540000       1.30720000       0.15000000
H        3.35831979       0.78593328       2.00001725       0.15000000
H       -3.35930000       1.70490000      -1.30700000       0.15000000
H        3.35948016      -0.78559420      -1.99927384       0.15000000
H       -4.59920000      -0.00040000       0.00020000       0.15000000
H        4.59919995       0.00014575       0.00069604       0.15000000
