22
Properties=species:S:1:pos:R:3:initial_charges:R:1 pbc="F F F"
C       -0.72340000       0.00030000      -0.00010000       0.00000000
C        0.72340000      -0.00020000      -0.00010000       0.00000000
C       -1.42060000      -0.95860000       0.73490000      -0.15000000
C        1.42029838      -0.13797820       1.20022010      -0.15000000
C       -1.42100000       0.95880000      -0.73500000      -0.15000000
C        1.42140156       0.13758659      -1.19994612      -0.15000000
C       -2.81540000      -0.95880000       0.73500000      -0.15000000
C        2.81519825      -0.13803688       1.20090740      -0.15000000
C       -2.81590000       0.95860000      -0.73490000      -0.15000000
C        2.81620144       0.13745600      -1.19932834      -0.15000000
C       -3.51320000      -0.00020000       0.00010000      -0.15000000
C        3.51309983      -0.00039410       0.00092227      -0.15000000
H       -0.89230000      -1.71300000       1.31310000       0.15000000
H        0.89186106      -0.24627010       2.14451245       0.15000000
H       -0.89310000       1.71340000      -1.31340000       0.15000000
H        0.89363893       0.24605053      -2.14456402       0.15000000
H       -3.35840000      -1.70540000       1.30720000       0.15000000
H        3.35796344      -0.24519020       2.13539341       0.15000000
H       -3.35930000       1.70490000      -1.30700000       0.15000000
H        3.35983625       0.24478665      -2.13355826       0.15000000
H       -4.59920000      -0.00040000       0.00020000       0.15000000
H        4.59919975      -0.00042522       0.00139401       0.15000000
