22
Properties=species:S:1:pos:R:3:initial_charges:R:1 pbc="F F F"
C       -0.72340000       0.00030000      -0.00010000       0.00000000
C        0.72340000      -0.00020000      -0.00010000       0.00000000
C       -1.42060000      -0.95860000       0.73490000      -0.15000000
C        1.41998628      -1.04104630      -0.61396079      -0.15000000
C       -1.42100000       0.95880000      -0.73500000      -0.15000000
C        1.42171326       1.03953174       0.61401605      -0.15000000
C       -2.81540000      -0.95880000       0.73500000      -0.15000000
C        2.81488574      -1.04232844      -0.61385356      -0.15000000
C       -2.81590000       0.95860000      -0.73490000      -0.15000000
C        2.81651278       1.03834239       0.61408584      -0.15000000
C       -3.51320000      -0.00020000       0.00010000      -0.15000000
C        3.51309913      -0.00241117       0.00018763      -0.15000000
H       -0.89230000      -1.71300000       1.31310000       0.15000000
H        0.89130358      -1.85939705      -1.09713549       0.15000000
H       -0.89310000       1.71340000      -1.31340000       0.15000000
H        0.89419622       1.85862342       1.09714688       0.15000000
H       -3.35840000      -1.70540000       1.30720000       0.15000000
H        3.35740790      -1.85270454      -1.09166133       0.15000000
H       -3.35930000       1.70490000      -1.30700000       0.15000000
H        3.36039026       1.84788427       1.09229444       0.15000000
H       -4.59920000      -0.00040000       0.00020000       0.15000000
H        4.59919874      -0.00335747       0.00031022       0.15000000
