22
Properties=species:S:1:pos:R:3:initial_charges:R:1 pbc="F F F"
C       -0.72340000       0.00030000      -0.00010000       0.00000000
C        0.72340000      -0.00020000      -0.00010000       0.00000000
C       -1.42060000      -0.95860000       0.73490000      -0.15000000
C        1.42074420       1.15204753      -0.36266755      -0.15000000
C       -1.42100000       0.95880000      -0.73500000      -0.15000000
C        1.42095565      -1.15269607       0.36182671      -0.15000000
C       -2.81540000      -0.95880000       0.73500000      -0.15000000
C        2.81564408       1.15202114      -0.36333387      -0.15000000
C       -2.81590000       0.95860000      -0.73490000      -0.15000000
C        2.81575556      -1.15275668       0.36125438      -0.15000000
C       -3.51320000      -0.00020000       0.00010000      -0.15000000
C        3.51309978      -0.00054338      -0.00121922      -0.15000000
H       -0.89230000      -1.71300000       1.31310000       0.15000000
H        0.89265774       2.05900463      -0.64764944       0.15000000
H       -0.89310000       1.71340000      -1.31340000       0.15000000
H        0.89284215      -2.05950709       0.64711731       0.15000000
H       -3.35840000      -1.70540000       1.30720000       0.15000000
H        3.35875630       2.04903583      -0.64570551       0.15000000
H       -3.35930000       1.70490000      -1.30700000       0.15000000
H        3.35904314      -2.05013771       0.64301687       0.15000000
H       -4.59920000      -0.00040000       0.00020000       0.15000000
H        4.59919968      -0.00062779      -0.00172555       0.15000000
