22
Properties=species:S:1:pos:R:3:initial_charges:R:1 pbc="F F F"
C       -0.72340000       0.00030000      -0.00010000       0.00000000
C        0.72340000      -0.00020000      -0.00010000       0.00000000
C       -1.42060000      -0.95860000       0.73490000      -0.15000000
C        1.41992914      -1.20640844       0.07288555      -0.15000000
C       -1.42100000       0.95880000      -0.73500000      -0.15000000
C        1.42177050       1.20514476      -0.07252024      -0.15000000
C       -2.81540000      -0.95880000       0.73500000      -0.15000000
C        2.81482866      -1.20749384       0.07342185      -0.15000000
C       -2.81590000       0.95860000      -0.73490000      -0.15000000
C        2.81657007       1.20411536      -0.07206686      -0.15000000
C       -3.51320000      -0.00020000       0.00010000      -0.15000000
C        3.51309926      -0.00203713       0.00083581      -0.15000000
H       -0.89230000      -1.71300000       1.31310000       0.15000000
H        0.89120142      -2.15500860       0.13003365       0.15000000
H       -0.89310000       1.71340000      -1.31340000       0.15000000
H        0.89429844       2.15439703      -0.12991491       0.15000000
H       -3.35840000      -1.70540000       1.30720000       0.15000000
H        3.35730635      -2.14654484       0.13035295       0.15000000
H       -3.35930000       1.70490000      -1.30700000       0.15000000
H        3.36049213       2.14263471      -0.12840912       0.15000000
H       -4.59920000      -0.00040000       0.00020000       0.15000000
H        4.59919892      -0.00281727       0.00125672       0.15000000
