22
Properties=species:S:1:pos:R:3:initial_charges:R:1 pbc="F F F"
C       -0.72340000       0.00030000      -0.00010000       0.00000000
C        0.72340000      -0.00020000      -0.00010000       0.00000000
C       -1.42060000      -0.95860000       0.73490000      -0.15000000
C        1.42001931      -0.94548629      -0.75281103      -0.15000000
C       -1.42100000       0.95880000      -0.73500000      -0.15000000
C        1.42168023       0.94394236       0.75277579      -0.15000000
C       -2.81540000      -0.95880000       0.73500000      -0.15000000
C        2.81491876      -0.94677557      -0.75281620      -0.15000000
C       -2.81590000       0.95860000      -0.73490000      -0.15000000
C        2.81647975       0.94275019       0.75274645      -0.15000000
C       -3.51320000      -0.00020000       0.00010000      -0.15000000
C        3.51309912      -0.00243906       0.00001127      -0.15000000
H       -0.89230000      -1.71300000       1.31310000       0.15000000
H        0.89136260      -1.68862622      -1.34520135       0.15000000
H       -0.89310000       1.71340000      -1.31340000       0.15000000
H        0.89413719       1.68782566       1.34517497       0.15000000
H       -3.35840000      -1.70540000       1.30720000       0.15000000
H        3.35746663      -1.68276899      -1.33873043       0.15000000
H       -3.35930000       1.70490000      -1.30700000       0.15000000
H        3.36033150       1.67785806       1.33899376       0.15000000
H       -4.59920000      -0.00040000       0.00020000       0.15000000
H        4.59919872      -0.00339687       0.00005321       0.15000000
