22
Properties=species:S:1:pos:R:3:initial_charges:R:1 pbc="F F F"
C       -0.72340000       0.00030000      -0.00010000       0.00000000
C        0.72340000      -0.00020000      -0.00010000       0.00000000
C       -1.42060000      -0.95860000       0.73490000      -0.15000000
C        1.42031288      -0.09600385       1.20428889      -0.15000000
C       -1.42100000       0.95880000      -0.73500000      -0.15000000
C        1.42138706       0.09562848      -1.20403230      -0.15000000
C       -2.81540000      -0.95880000       0.73500000      -0.15000000
C        2.81521277      -0.09603880       1.20496099      -0.15000000
C       -2.81590000       0.95860000      -0.73490000      -0.15000000
C        2.81618695       0.09551924      -1.20342717      -0.15000000
C       -3.51320000      -0.00020000       0.00010000      -0.15000000
C        3.51309984      -0.00035889       0.00089478      -0.15000000
H       -0.89230000      -1.71300000       1.31310000       0.15000000
H        0.89188698      -0.17127435       2.15179170       0.15000000
H       -0.89310000       1.71340000      -1.31340000       0.15000000
H        0.89361301       0.17105977      -2.15185375       0.15000000
H       -3.35840000      -1.70540000       1.30720000       0.15000000
H        3.35798925      -0.17051388       2.14261078       0.15000000
H       -3.35930000       1.70490000      -1.30700000       0.15000000
H        3.35981046       0.17018024      -2.14084032       0.15000000
H       -4.59920000      -0.00040000       0.00020000       0.15000000
H        4.59919977      -0.00037376       0.00135421       0.15000000
