22
Properties=species:S:1:pos:R:3:initial_charges:R:1 pbc="F F F"
C       -0.72340000       0.00030000      -0.00010000       0.00000000
C        0.72340000      -0.00020000      -0.00010000       0.00000000
C       -1.42060000      -0.95860000       0.73490000      -0.15000000
C        1.42036439       0.05303135      -1.20709030      -0.15000000
C       -1.42100000       0.95880000      -0.73500000      -0.15000000
C        1.42133520      -0.05443574       1.20645168      -0.15000000
C       -2.81540000      -0.95880000       0.73500000      -0.15000000
C        2.81526395       0.05207900      -1.20774639      -0.15000000
C       -2.81590000       0.95860000      -0.73490000      -0.15000000
C        2.81613482      -0.05531145       1.20585993      -0.15000000
C       -3.51320000      -0.00020000       0.00010000      -0.15000000
C        3.51309927      -0.00200352      -0.00106607      -0.15000000
H       -0.89230000      -1.71300000       1.31310000       0.15000000
H        0.89197919       0.09555374      -2.15664920       0.15000000
H       -0.89310000       1.71340000      -1.31340000       0.15000000
H        0.89352059      -0.09637790       2.15632189       0.15000000
H       -3.35840000      -1.70540000       1.30720000       0.15000000
H        3.35808046       0.09341014      -2.14741759       0.15000000
H       -3.35930000       1.70490000      -1.30700000       0.15000000
H        3.35971793      -0.09758733       2.14531422       0.15000000
H       -4.59920000      -0.00040000       0.00020000       0.15000000
H        4.59919894      -0.00275516      -0.00151264       0.15000000
