22
Properties=species:S:1:pos:R:3:initial_charges:R:1 pbc="F F F"
C       -0.72340000       0.00030000      -0.00010000       0.00000000
C        0.72340000      -0.00020000      -0.00010000       0.00000000
C       -1.42060000      -0.95860000       0.73490000      -0.15000000
C        1.42069423       1.00746493      -0.66629117      -0.15000000
C       -1.42100000       0.95880000      -0.73500000      -0.15000000
C        1.42100555      -1.00829916       0.66541079      -0.15000000
C       -2.81540000      -0.95880000       0.73500000      -0.15000000
C        2.81559405       1.00723722      -0.66705728      -0.15000000
C       -2.81590000       0.95860000      -0.73490000      -0.15000000
C        2.81580540      -1.00853384       0.66474446      -0.15000000
C       -3.51320000      -0.00020000       0.00010000      -0.15000000
C        3.51309966      -0.00087593      -0.00134695      -0.15000000
H       -0.89230000      -1.71300000       1.31310000       0.15000000
H        0.89256849       1.80074347      -1.19017428       0.15000000
H       -0.89310000       1.71340000      -1.31340000       0.15000000
H        0.89293137      -1.80133804       1.18965100       0.15000000
H       -3.35840000      -1.70540000       1.30720000       0.15000000
H        3.35866736       1.79166365      -1.18579280       0.15000000
H       -3.35930000       1.70490000      -1.30700000       0.15000000
H        3.35913184      -1.79349487       1.18289192       0.15000000
H       -4.59920000      -0.00040000       0.00020000       0.15000000
H        4.59919951      -0.00111117      -0.00191387       0.15000000
