22
Properties=species:S:1:pos:R:3:initial_charges:R:1 pbc="F F F"
C       -0.72340000       0.00030000      -0.00010000       0.00000000
C        0.72340000      -0.00020000      -0.00010000       0.00000000
C       -1.42060000      -0.95860000       0.73490000      -0.15000000
C        1.42015335      -0.55762768      -1.07212037      -0.15000000
C       -1.42100000       0.95880000      -0.73500000      -0.15000000
C        1.42154618       0.55607396       1.07180168      -0.15000000
C       -2.81540000      -0.95880000       0.73500000      -0.15000000
C        2.81505283      -0.55884507      -1.07245342      -0.15000000
C       -2.81590000       0.95860000      -0.73490000      -0.15000000
C        2.81634573       0.55495511       1.07148604      -0.15000000
C       -3.51320000      -0.00020000       0.00010000      -0.15000000
C        3.51309914      -0.00237409      -0.00051693      -0.15000000
H       -0.89230000      -1.71300000       1.31310000       0.15000000
H        0.89160212      -0.99555716      -1.91563239       0.15000000
H       -0.89310000       1.71340000      -1.31340000       0.15000000
H        0.89389766       0.99471050       1.91547569       0.15000000
H       -3.35840000      -1.70540000       1.30720000       0.15000000
H        3.35770503      -0.99291196      -1.90699191       0.15000000
H       -3.35930000       1.70490000      -1.30700000       0.15000000
H        3.36009311       0.98804508       1.90612134       0.15000000
H       -4.59920000      -0.00040000       0.00020000       0.15000000
H        4.59919876      -0.00329860      -0.00071553       0.15000000
