22
Properties=species:S:1:pos:R:3:initial_charges:R:1 pbc="F F F"
C       -0.72340000       0.00030000      -0.00010000       0.00000000
C        0.72340000      -0.00020000      -0.00010000       0.00000000
C       -1.42060000      -0.95860000       0.73490000      -0.15000000
C        1.41995491      -1.13183296      -0.42393561      -0.15000000
C       -1.42100000       0.95880000      -0.73500000      -0.15000000
C        1.42174465       1.13037234       0.42409683      -0.15000000
C       -2.81540000      -0.95880000       0.73500000      -0.15000000
C        2.81485437      -1.13308433      -0.42369109      -0.15000000
C       -2.81590000       0.95860000      -0.73490000      -0.15000000
C        2.81654418       1.12920586       0.42428838      -0.15000000
C       -3.51320000      -0.00020000       0.00010000      -0.15000000
C        3.51309916      -0.00234228       0.00039981      -0.15000000
H       -0.89230000      -1.71300000       1.31310000       0.15000000
H        0.89124751      -2.02165076      -0.75763298       0.15000000
H       -0.89310000       1.71340000      -1.31340000       0.15000000
H        0.89425231       2.02091773       0.75768571       0.15000000
H       -3.35840000      -1.70540000       1.30720000       0.15000000
H        3.35735211      -2.01412229      -0.75355211       0.15000000
H       -3.35930000       1.70490000      -1.30700000       0.15000000
H        3.36044611       2.00948616       0.75462381       0.15000000
H       -4.59920000      -0.00040000       0.00020000       0.15000000
H        4.59919877      -0.00325862       0.00061969       0.15000000
