22
Properties=species:S:1:pos:R:3:initial_charges:R:1 pbc="F F F"
C       -0.72340000       0.00030000      -0.00010000       0.00000000
C        0.72340000      -0.00020000      -0.00010000       0.00000000
C       -1.42060000      -0.95860000       0.73490000      -0.15000000
C        1.41997236      -1.08133219      -0.53987648      -0.15000000
C       -1.42100000       0.95880000      -0.73500000      -0.15000000
C        1.42172719       1.07983698       0.53997525      -0.15000000
C       -2.81540000      -0.95880000       0.73500000      -0.15000000
C        2.81487182      -1.08260491      -0.53971371      -0.15000000
C       -2.81590000       0.95860000      -0.73490000      -0.15000000
C        2.81652671       1.07865423       0.54009420      -0.15000000
C       -3.51320000      -0.00020000       0.00010000      -0.15000000
C        3.51309914      -0.00238807       0.00027392      -0.15000000
H       -0.89230000      -1.71300000       1.31310000       0.15000000
H        0.89127870      -1.93139361      -0.96477620       0.15000000
H       -0.89310000       1.71340000      -1.31340000       0.15000000
H        0.89422111       1.93063534       0.96480497       0.15000000
H       -3.35840000      -1.70540000       1.30720000       0.15000000
H        3.35738314      -1.92433761      -0.95984166       0.15000000
H       -3.35930000       1.70490000      -1.30700000       0.15000000
H        3.36041504       1.91958178       0.96065401       0.15000000
H       -4.59920000      -0.00040000       0.00020000       0.15000000
H        4.59919875      -0.00332443       0.00043604       0.15000000
