22
Properties=species:S:1:pos:R:3:initial_charges:R:1 pbc="F F F"
C       -0.72340000       0.00030000      -0.00010000       0.00000000
C        0.72340000      -0.00020000      -0.00010000       0.00000000
C       -1.42060000      -0.95860000       0.73490000      -0.15000000
C        1.42025528      -0.26269236       1.17926806      -0.15000000
C       -1.42100000       0.95880000      -0.73500000      -0.15000000
C        1.42144464       0.26224852      -1.17894540      -0.15000000
C       -2.81540000      -0.95880000       0.73500000      -0.15000000
C        2.81515513      -0.26282521       1.17999584      -0.15000000
C       -2.81590000       0.95860000      -0.73490000      -0.15000000
C        2.81624450       0.26205143      -1.17829427      -0.15000000
C       -3.51320000      -0.00020000       0.00010000      -0.15000000
C        3.51309979      -0.00050518       0.00099716      -0.15000000
H       -0.89230000      -1.71300000       1.31310000       0.15000000
H        0.89178406      -0.46909546       2.10704879       0.15000000
H       -0.89310000       1.71340000      -1.31340000       0.15000000
H        0.89371593       0.46885874      -2.10707009       0.15000000
H       -3.35840000      -1.70540000       1.30720000       0.15000000
H        3.35788676      -0.46707294       2.09818167       0.15000000
H       -3.35930000       1.70490000      -1.30700000       0.15000000
H        3.35991285       0.46644670      -2.09616764       0.15000000
H       -4.59920000      -0.00040000       0.00020000       0.15000000
H        4.59919969      -0.00058749       0.00150229       0.15000000
