22
Properties=species:S:1:pos:R:3:initial_charges:R:1 pbc="F F F"
C       -0.72340000       0.00030000      -0.00010000       0.00000000
C        0.72340000      -0.00020000      -0.00010000       0.00000000
C       -1.42060000      -0.95860000       0.73490000      -0.15000000
C        1.41996026      -1.11635210      -0.46316244      -0.15000000
C       -1.42100000       0.95880000      -0.73500000      -0.15000000
C        1.42173930       1.11487922       0.46330325      -0.15000000
C       -2.81540000      -0.95880000       0.73500000      -0.15000000
C        2.81485972      -1.11761153      -0.46294491      -0.15000000
C       -2.81590000       0.95860000      -0.73490000      -0.15000000
C        2.81653883       1.11370647       0.46347080      -0.15000000
C       -3.51320000      -0.00020000       0.00010000      -0.15000000
C        3.51309915      -0.00235900       0.00035839      -0.15000000
H       -0.89230000      -1.71300000       1.31310000       0.15000000
H        0.89125707      -1.99398186      -0.82771709       0.15000000
H       -0.89310000       1.71340000      -1.31340000       0.15000000
H        0.89424274       1.99324015       0.82776214       0.15000000
H       -3.35840000      -1.70540000       1.30720000       0.15000000
H        3.35736163      -1.98660092      -0.82334623       0.15000000
H       -3.35930000       1.70490000      -1.30700000       0.15000000
H        3.36043658       1.98192188       0.82433289       0.15000000
H       -4.59920000      -0.00040000       0.00020000       0.15000000
H        4.59919876      -0.00328269       0.00055925       0.15000000
