22
Properties=species:S:1:pos:R:3:initial_charges:R:1 pbc="F F F"
C       -0.72340000       0.00030000      -0.00010000       0.00000000
C        0.72340000      -0.00020000      -0.00010000       0.00000000
C       -1.42060000      -0.95860000       0.73490000      -0.15000000
C        1.41995223      -1.13957376       0.40246795      -0.15000000
C       -1.42100000       0.95880000      -0.73500000      -0.15000000
C        1.42174746       1.13848068      -0.40201935      -0.15000000
C       -2.81540000      -0.95880000       0.73500000      -0.15000000
C        2.81485182      -1.14048796       0.40314977      -0.15000000
C       -2.81590000       0.95860000      -0.73490000      -0.15000000
C        2.81654708       1.13759745      -0.40143266      -0.15000000
C       -3.51320000      -0.00020000       0.00010000      -0.15000000
C        3.51309936      -0.00174536       0.00104020      -0.15000000
H       -0.89230000      -1.71300000       1.31310000       0.15000000
H        0.89124266      -2.03566753       0.71892221       0.15000000
H       -0.89310000       1.71340000      -1.31340000       0.15000000
H        0.89425723       2.03514748      -0.71878978       0.15000000
H       -3.35840000      -1.70540000       1.30720000       0.15000000
H        3.35734750      -2.02747665       0.71666131       0.15000000
H       -3.35930000       1.70490000      -1.30700000       0.15000000
H        3.36045120       2.02422285      -0.71433510       0.15000000
H       -4.59920000      -0.00040000       0.00020000       0.15000000
H        4.59919907      -0.00239380       0.00155638       0.15000000
