22
Properties=species:S:1:pos:R:3:initial_charges:R:1 pbc="F F F"
C       -0.72340000       0.00030000      -0.00010000       0.00000000
C        0.72340000      -0.00020000      -0.00010000       0.00000000
C       -1.42060000      -0.95860000       0.73490000      -0.15000000
C        1.42037893       0.09512213      -1.20448889      -0.15000000
C       -1.42100000       0.95880000      -0.73500000      -0.15000000
C        1.42132066      -0.09651089       1.20383230      -0.15000000
C       -2.81540000      -0.95880000       0.73500000      -0.15000000
C        2.81527851       0.09419296      -1.20516099      -0.15000000
C       -2.81590000       0.95860000      -0.73490000      -0.15000000
C        2.81612029      -0.09736571       1.20322717      -0.15000000
C       -3.51320000      -0.00020000       0.00010000      -0.15000000
C        3.51309928      -0.00196929      -0.00109478      -0.15000000
H       -0.89230000      -1.71300000       1.31310000       0.15000000
H        0.89200518       0.17075785      -2.15199170       0.15000000
H       -0.89310000       1.71340000      -1.31340000       0.15000000
H        0.89349460      -0.17157738       2.15165375       0.15000000
H       -3.35840000      -1.70540000       1.30720000       0.15000000
H        3.35810634       0.16829286      -2.14281078       0.15000000
H       -3.35930000       1.70490000      -1.30700000       0.15000000
H        3.35969207      -0.17240244       2.14064032       0.15000000
H       -4.59920000      -0.00040000       0.00020000       0.15000000
H        4.59919896      -0.00270512      -0.00155421       0.15000000
