22
Properties=species:S:1:pos:R:3:initial_charges:R:1 pbc="F F F"
C       -0.72340000       0.00030000      -0.00010000       0.00000000
C        0.72340000      -0.00020000      -0.00010000       0.00000000
C       -1.42060000      -0.95860000       0.73490000      -0.15000000
C        1.42022061      -0.36300839      -1.15258846      -0.15000000
C       -1.42100000       0.95880000      -0.73500000      -0.15000000
C        1.42147893       0.36148548       1.15215493      -0.15000000
C       -2.81540000      -0.95880000       0.73500000      -0.15000000
C        2.81512011      -0.36415677      -1.15304413      -0.15000000
C       -2.81590000       0.95860000      -0.73490000      -0.15000000
C        2.81627850       0.36043112       1.15173351      -0.15000000
C       -3.51320000      -0.00020000       0.00010000      -0.15000000
C        3.51309918      -0.00228331      -0.00072071      -0.15000000
H       -0.89230000      -1.71300000       1.31310000       0.15000000
H        0.89172229      -0.64780765      -2.05936300       0.15000000
H       -0.89310000       1.71340000      -1.31340000       0.15000000
H        0.89377748       0.64695847       2.05914841       0.15000000
H       -3.35840000      -1.70540000       1.30720000       0.15000000
H        3.35782468      -0.64671598      -2.05024646       0.15000000
H       -3.35930000       1.70490000      -1.30700000       0.15000000
H        3.35997352       0.64200573       2.04892673       0.15000000
H       -4.59920000      -0.00040000       0.00020000       0.15000000
H        4.59919880      -0.00316499      -0.00101165       0.15000000
