22
Properties=species:S:1:pos:R:3:initial_charges:R:1 pbc="F F F"
C       -0.72340000       0.00030000      -0.00010000       0.00000000
C        0.72340000      -0.00020000      -0.00010000       0.00000000
C       -1.42060000      -0.95860000       0.73490000      -0.15000000
C        1.42057047       0.64936255      -1.01864816      -0.15000000
C       -1.42100000       0.95880000      -0.73500000      -0.15000000
C        1.42112921      -0.65047765       1.01780714      -0.15000000
C       -2.81540000      -0.95880000       0.73500000      -0.15000000
C        2.81547018       0.64880125      -1.01945149      -0.15000000
C       -2.81590000       0.95860000      -0.73490000      -0.15000000
C        2.81592896      -0.65100474       1.01709782      -0.15000000
C       -3.51320000      -0.00020000       0.00010000      -0.15000000
C        3.51309948      -0.00140802      -0.00135636      -0.15000000
H       -0.89230000      -1.71300000       1.31310000       0.15000000
H        0.89234740       1.16099191      -1.81982039       0.15000000
H       -0.89310000       1.71340000      -1.31340000       0.15000000
H        0.89315242      -1.16171126       1.81935659       0.15000000
H       -3.35840000      -1.70540000       1.30720000       0.15000000
H        3.35844713       1.15440550      -1.81247126       0.15000000
H       -3.35930000       1.70490000      -1.30700000       0.15000000
H        3.35935168      -1.15736902       1.80964510       0.15000000
H       -4.59920000      -0.00040000       0.00020000       0.15000000
H        4.59919924      -0.00188596      -0.00193124       0.15000000
