22
Properties=species:S:1:pos:R:3:initial_charges:R:1 pbc="F F F"
C       -0.72340000       0.00030000      -0.00010000       0.00000000
C        0.72340000      -0.00020000      -0.00010000       0.00000000
C       -1.42060000      -0.95860000       0.73490000      -0.15000000
C        1.42055805       0.61341989      -1.04070550      -0.15000000
C       -1.42100000       0.95880000      -0.73500000      -0.15000000
C        1.42114162      -0.61455722       1.03987300      -0.15000000
C       -2.81540000      -0.95880000       0.73500000      -0.15000000
C        2.81545774       0.61283060      -1.04150558      -0.15000000
C       -2.81590000       0.95860000      -0.73490000      -0.15000000
C        2.81594136      -0.61510904       1.03916569      -0.15000000
C       -3.51320000      -0.00020000       0.00010000      -0.15000000
C        3.51309946      -0.00145172      -0.00134708      -0.15000000
H       -0.89230000      -1.71300000       1.31310000       0.15000000
H        0.89232521       1.09677718      -1.85923892       0.15000000
H       -0.89310000       1.71340000      -1.31340000       0.15000000
H        0.89317461      -1.09750562       1.85878233       0.15000000
H       -3.35840000      -1.70540000       1.30720000       0.15000000
H        3.35842502       1.09045075      -1.85169414       0.15000000
H       -3.35930000       1.70490000      -1.30700000       0.15000000
H        3.35937375      -1.09350547       1.84889547       0.15000000
H       -4.59920000      -0.00040000       0.00020000       0.15000000
H        4.59919922      -0.00194966      -0.00191804       0.15000000
