22
Properties=species:S:1:pos:R:3:initial_charges:R:1 pbc="F F F"
C       -0.72340000       0.00030000      -0.00010000       0.00000000
C        0.72340000      -0.00020000      -0.00010000       0.00000000
C       -1.42060000      -0.95860000       0.73490000      -0.15000000
C        1.42064353       0.86074780       0.84727175      -0.15000000
C       -1.42100000       0.95880000      -0.73500000      -0.15000000
C        1.42105647      -0.86095440      -0.84756642      -0.15000000
C       -2.81540000      -0.95880000       0.73500000      -0.15000000
C        2.81554353       0.86106798       0.84736127      -0.15000000
C       -2.81590000       0.95860000      -0.73490000      -0.15000000
C        2.81585648      -0.86073324      -0.84746302      -0.15000000
C       -3.51320000      -0.00020000       0.00010000      -0.15000000
C        3.51310001       0.00011552      -0.00007739      -0.15000000
H       -0.89230000      -1.71300000       1.31310000       0.15000000
H        0.89247778       1.53825930       1.51411526       0.15000000
H       -0.89310000       1.71340000      -1.31340000       0.15000000
H        0.89302222      -1.53847625      -1.51445830       0.15000000
H       -3.35840000      -1.70540000       1.30720000       0.15000000
H        3.35857742       1.53141070       1.50697846       0.15000000
H       -3.35930000       1.70490000      -1.30700000       0.15000000
H        3.35922258      -1.53090928      -1.50735814       0.15000000
H       -4.59920000      -0.00040000       0.00020000       0.15000000
H        4.59920001       0.00032383      -0.00005821       0.15000000
