22
Properties=species:S:1:pos:R:3:initial_charges:R:1 pbc="F F F"
C       -0.72340000       0.00030000      -0.00010000       0.00000000
C        0.72340000      -0.00020000      -0.00010000       0.00000000
C       -1.42060000      -0.95860000       0.73490000      -0.15000000
C        1.42073958       1.13869204      -0.40266795      -0.15000000
C       -1.42100000       0.95880000      -0.73500000      -0.15000000
C        1.42096026      -1.13936309       0.40181935      -0.15000000
C       -2.81540000      -0.95880000       0.73500000      -0.15000000
C        2.81563946       1.13864212      -0.40334977      -0.15000000
C       -2.81590000       0.95860000      -0.73490000      -0.15000000
C        2.81576016      -1.13944393       0.40123266      -0.15000000
C       -3.51320000      -0.00020000       0.00010000      -0.15000000
C        3.51309976      -0.00058282      -0.00124020      -0.15000000
H       -0.89230000      -1.71300000       1.31310000       0.15000000
H        0.89264950       2.03515103      -0.71912221       0.15000000
H       -0.89310000       1.71340000      -1.31340000       0.15000000
H        0.89285039      -2.03566509       0.71858978       0.15000000
H       -3.35840000      -1.70540000       1.30720000       0.15000000
H        3.35874808       2.02525563      -0.71686131       0.15000000
H       -3.35930000       1.70490000      -1.30700000       0.15000000
H        3.35905133      -2.02644504       0.71413510       0.15000000
H       -4.59920000      -0.00040000       0.00020000       0.15000000
H        4.59919966      -0.00068507      -0.00175638       0.15000000
