22
Properties=species:S:1:pos:R:3:initial_charges:R:1 pbc="F F F"
C       -0.72340000       0.00030000      -0.00010000       0.00000000
C        0.72340000      -0.00020000      -0.00010000       0.00000000
C       -1.42060000      -0.95860000       0.73490000      -0.15000000
C        1.42000583      -0.98448292       0.70086075      -0.15000000
C       -1.42100000       0.95880000      -0.73500000      -0.15000000
C        1.42169392       0.98357679      -0.70037911      -0.15000000
C       -2.81540000      -0.95880000       0.73500000      -0.15000000
C        2.81490548      -0.98519245       0.70163527      -0.15000000
C       -2.81590000       0.95860000      -0.73490000      -0.15000000
C        2.81649361       0.98287083      -0.69970456      -0.15000000
C       -3.51320000      -0.00020000       0.00010000      -0.15000000
C        3.51309948      -0.00140857       0.00115625      -0.15000000
H       -0.89230000      -1.71300000       1.31310000       0.15000000
H        0.89133841      -1.75862986       1.25210338       0.15000000
H       -0.89310000       1.71340000      -1.31340000       0.15000000
H        0.89416152       1.75820156      -1.25198300       0.15000000
H       -3.35840000      -1.70540000       1.30720000       0.15000000
H        3.35744290      -1.75141248       1.24743743       0.15000000
H       -3.35930000       1.70490000      -1.30700000       0.15000000
H        3.36035605       1.74889498      -1.24492457       0.15000000
H       -4.59920000      -0.00040000       0.00020000       0.15000000
H        4.59919924      -0.00190415       0.00172771       0.15000000
