22
Properties=species:S:1:pos:R:3:initial_charges:R:1 pbc="F F F"
C       -0.72340000       0.00030000      -0.00010000       0.00000000
C        0.72340000      -0.00020000      -0.00010000       0.00000000
C       -1.42060000      -0.95860000       0.73490000      -0.15000000
C        1.42012134      -0.65024427       1.01844816      -0.15000000
C       -1.42100000       0.95880000      -0.73500000      -0.15000000
C        1.42157850       0.64959524      -1.01800714      -0.15000000
C       -2.81540000      -0.95880000       0.73500000      -0.15000000
C        2.81502110      -0.65064709       1.01925149      -0.15000000
C       -2.81590000       0.95860000      -0.73490000      -0.15000000
C        2.81637828       0.64915827      -1.01729782      -0.15000000
C       -3.51320000      -0.00020000       0.00010000      -0.15000000
C        3.51309965      -0.00092016       0.00115636      -0.15000000
H       -0.89230000      -1.71300000       1.31310000       0.15000000
H        0.89154476      -1.16150840       1.81962039       0.15000000
H       -0.89310000       1.71340000      -1.31340000       0.15000000
H        0.89395520       1.16119366      -1.81955659       0.15000000
H       -3.35840000      -1.70540000       1.30720000       0.15000000
H        3.35764846      -1.15662652       1.81227126       0.15000000
H       -3.35930000       1.70490000      -1.30700000       0.15000000
H        3.36015086       1.15514682      -1.80984510       0.15000000
H       -4.59920000      -0.00040000       0.00020000       0.15000000
H        4.59919948      -0.00119292       0.00173124       0.15000000
