22
Properties=species:S:1:pos:R:3:initial_charges:R:1 pbc="F F F"
C       -0.72340000       0.00030000      -0.00010000       0.00000000
C        0.72340000      -0.00020000      -0.00010000       0.00000000
C       -1.42060000      -0.95860000       0.73490000      -0.15000000
C        1.42068139       0.97029811       0.71917089      -0.15000000
C       -1.42100000       0.95880000      -0.73500000      -0.15000000
C        1.42101861      -0.97052446      -0.71955864      -0.15000000
C       -2.81540000      -0.95880000       0.73500000      -0.15000000
C        2.81558139       0.97062295       0.71914788      -0.15000000
C       -2.81590000       0.95860000      -0.73490000      -0.15000000
C        2.81581861      -0.97029576      -0.71955411      -0.15000000
C       -3.51320000      -0.00020000       0.00010000      -0.15000000
C        3.51310000       0.00010622      -0.00025570      -0.15000000
H       -0.89230000      -1.71300000       1.31310000       0.15000000
H        0.89254543       1.73402457       1.28525875       0.15000000
H       -0.89310000       1.71340000      -1.31340000       0.15000000
H        0.89295455      -1.73426435      -1.28564217       0.15000000
H       -3.35840000      -1.70540000       1.30720000       0.15000000
H        3.35864475       1.72624107       1.27902593       0.15000000
H       -3.35930000       1.70490000      -1.30700000       0.15000000
H        3.35915524      -1.72579117      -1.27978284       0.15000000
H       -4.59920000      -0.00040000       0.00020000       0.15000000
H        4.59920000       0.00031152      -0.00031794       0.15000000
