22
Properties=species:S:1:pos:R:3:initial_charges:R:1 pbc="F F F"
C       -0.72340000       0.00030000      -0.00010000       0.00000000
C        0.72340000      -0.00020000      -0.00010000       0.00000000
C       -1.42060000      -0.95860000       0.73490000      -0.15000000
C        1.42053847       0.55674597       1.07192037      -0.15000000
C       -1.42100000       0.95880000      -0.73500000      -0.15000000
C        1.42116153      -0.55695637      -1.07200168      -0.15000000
C       -2.81540000      -0.95880000       0.73500000      -0.15000000
C        2.81543845       0.55699923       1.07225342      -0.15000000
C       -2.81590000       0.95860000      -0.73490000      -0.15000000
C        2.81596151      -0.55680158      -1.07168604      -0.15000000
C       -3.51320000      -0.00020000       0.00010000      -0.15000000
C        3.51309998       0.00004591       0.00031693      -0.15000000
H       -0.89230000      -1.71300000       1.31310000       0.15000000
H        0.89229005       0.99504067       1.91543239       0.15000000
H       -0.89310000       1.71340000      -1.31340000       0.15000000
H        0.89320996      -0.99522810      -1.91567569       0.15000000
H       -3.35840000      -1.70540000       1.30720000       0.15000000
H        3.35839055       0.99069094       1.90679191       0.15000000
H       -3.35930000       1.70490000      -1.30700000       0.15000000
H        3.35940943      -0.99026727      -1.90632134       0.15000000
H       -4.59920000      -0.00040000       0.00020000       0.15000000
H        4.59919997       0.00021973       0.00051553       0.15000000
