22
Properties=species:S:1:pos:R:3:initial_charges:R:1 pbc="F F F"
C       -0.72340000       0.00030000      -0.00010000       0.00000000
C        0.72340000      -0.00020000      -0.00010000       0.00000000
C       -1.42060000      -0.95860000       0.73490000      -0.15000000
C        1.41999759      -1.00834664       0.66609117      -0.15000000
C       -1.42100000       0.95880000      -0.73500000      -0.15000000
C        1.42170216       1.00741674      -0.66561079      -0.15000000
C       -2.81540000      -0.95880000       0.73500000      -0.15000000
C        2.81489723      -1.00908307       0.66685728      -0.15000000
C       -2.81590000       0.95860000      -0.73490000      -0.15000000
C        2.81650184       1.00668737      -0.66494446      -0.15000000
C       -3.51320000      -0.00020000       0.00010000      -0.15000000
C        3.51309946      -0.00145226       0.00114695      -0.15000000
H       -0.89230000      -1.71300000       1.31310000       0.15000000
H        0.89132367      -1.80125997       1.18997428       0.15000000
H       -0.89310000       1.71340000      -1.31340000       0.15000000
H        0.89417624       1.80082044      -1.18985100       0.15000000
H       -3.35840000      -1.70540000       1.30720000       0.15000000
H        3.35742823      -1.79388467       1.18559280       0.15000000
H       -3.35930000       1.70490000      -1.30700000       0.15000000
H        3.36037070       1.79127268      -1.18309192       0.15000000
H       -4.59920000      -0.00040000       0.00020000       0.15000000
H        4.59919922      -0.00196771       0.00171387       0.15000000
