22
Properties=species:S:1:pos:R:3:initial_charges:R:1 pbc="F F F"
C       -0.72340000       0.00030000      -0.00010000       0.00000000
C        0.72340000      -0.00020000      -0.00010000       0.00000000
C       -1.42060000      -0.95860000       0.73490000      -0.15000000
C        1.42027726      -0.19908452      -1.19183217      -0.15000000
C       -1.42100000       0.95880000      -0.73500000      -0.15000000
C        1.42142230       0.19760035       1.19131173      -0.15000000
C       -2.81540000      -0.95880000       0.73500000      -0.15000000
C        2.81517678      -0.20016301      -1.19237614      -0.15000000
C       -2.81590000       0.95860000      -0.73490000      -0.15000000
C        2.81622189       0.19661021       1.19081475      -0.15000000
C       -3.51320000      -0.00020000       0.00010000      -0.15000000
C        3.51309921      -0.00218603      -0.00087043      -0.15000000
H       -0.89230000      -1.71300000       1.31310000       0.15000000
H        0.89182352      -0.35491174      -2.12944386       0.15000000
H       -0.89310000       1.71340000      -1.31340000       0.15000000
H        0.89367626       0.35406783       2.12918318       0.15000000
H       -3.35840000      -1.70540000       1.30720000       0.15000000
H        3.35792545      -0.35510777      -2.12014550       0.15000000
H       -3.35930000       1.70490000      -1.30700000       0.15000000
H        3.35987281       0.35057758       2.11849032       0.15000000
H       -4.59920000      -0.00040000       0.00020000       0.15000000
H        4.59919885      -0.00302230      -0.00122901       0.15000000
