22
Properties=species:S:1:pos:R:3:initial_charges:R:1 pbc="F F F"
C       -0.72340000       0.00030000      -0.00010000       0.00000000
C        0.72340000      -0.00020000      -0.00010000       0.00000000
C       -1.42060000      -0.95860000       0.73490000      -0.15000000
C        1.42072892       1.10783545      -0.48114922      -0.15000000
C       -1.42100000       0.95880000      -0.73500000      -0.15000000
C        1.42097090      -1.10855226       0.48028748      -0.15000000
C       -2.81540000      -0.95880000       0.73500000      -0.15000000
C        2.81562878       1.10773692      -0.48185952      -0.15000000
C       -2.81590000       0.95860000      -0.73490000      -0.15000000
C        2.81577079      -1.10867500       0.47967423      -0.15000000
C       -3.51320000      -0.00020000       0.00010000      -0.15000000
C        3.51309974      -0.00066377      -0.00127797      -0.15000000
H       -0.89230000      -1.71300000       1.31310000       0.15000000
H        0.89263045       1.98003643      -0.85935369       0.15000000
H       -0.89310000       1.71340000      -1.31340000       0.15000000
H        0.89286943      -1.98057368       0.85882186       0.15000000
H       -3.35840000      -1.70540000       1.30720000       0.15000000
H        3.35872910       1.97032077      -0.85646748       0.15000000
H       -3.35930000       1.70490000      -1.30700000       0.15000000
H        3.35907026      -1.97168891       0.85367542       0.15000000
H       -4.59920000      -0.00040000       0.00020000       0.15000000
H        4.59919962      -0.00080270      -0.00181194       0.15000000
