22
Properties=species:S:1:pos:R:3:initial_charges:R:1 pbc="F F F"
C       -0.72340000       0.00030000      -0.00010000       0.00000000
C        0.72340000      -0.00020000      -0.00010000       0.00000000
C       -1.42060000      -0.95860000       0.73490000      -0.15000000
C        1.42004286      -0.87735142       0.83099124      -0.15000000
C       -1.42100000       0.95880000      -0.73500000      -0.15000000
C        1.42165693       0.87654039      -0.83051289      -0.15000000
C       -2.81540000      -0.95880000       0.73500000      -0.15000000
C        2.81494255      -0.87795094       0.83178988      -0.15000000
C       -2.81590000       0.95860000      -0.73490000      -0.15000000
C        2.81645665       0.87593048      -0.82981374      -0.15000000
C       -3.51320000      -0.00020000       0.00010000      -0.15000000
C        3.51309954      -0.00123135       0.00117805      -0.15000000
H       -0.89230000      -1.71300000       1.31310000       0.15000000
H        0.89140455      -1.56724449       1.48463506       0.15000000
H       -0.89310000       1.71340000      -1.31340000       0.15000000
H        0.89409539       1.56685991      -1.48453015       0.15000000
H       -3.35840000      -1.70540000       1.30720000       0.15000000
H        3.35750879      -1.56075502       1.47889145       0.15000000
H       -3.35930000       1.70490000      -1.30700000       0.15000000
H        3.36029030       1.55861796      -1.47636381       0.15000000
H       -4.59920000      -0.00040000       0.00020000       0.15000000
H        4.59919933      -0.00164623       0.00176068       0.15000000
