22
Properties=species:S:1:pos:R:3:initial_charges:R:1 pbc="F F F"
C       -0.72340000       0.00030000      -0.00010000       0.00000000
C        0.72340000      -0.00020000      -0.00010000       0.00000000
C       -1.42060000      -0.95860000       0.73490000      -0.15000000
C        1.42019313      -0.44251872      -1.12448962      -0.15000000
C       -1.42100000       0.95880000      -0.73500000      -0.15000000
C        1.42150641       0.44098108       1.12410137      -0.15000000
C       -2.81540000      -0.95880000       0.73500000      -0.15000000
C        2.81509262      -0.44369727      -1.12489770      -0.15000000
C       -2.81590000       0.95860000      -0.73490000      -0.15000000
C        2.81630596       0.43989872       1.12372089      -0.15000000
C       -3.51320000      -0.00020000       0.00010000      -0.15000000
C        3.51309916      -0.00232388      -0.00064112      -0.15000000
H       -0.89230000      -1.71300000       1.31310000       0.15000000
H        0.89167320      -0.78987717      -2.00917597       0.15000000
H       -0.89310000       1.71340000      -1.31340000       0.15000000
H        0.89382658       0.78902778       2.00898458       0.15000000
H       -3.35840000      -1.70540000       1.30720000       0.15000000
H        3.35777580      -0.78815430      -2.00021725       0.15000000
H       -3.35930000       1.70490000      -1.30700000       0.15000000
H        3.36002238       0.78337200       1.99907384       0.15000000
H       -4.59920000      -0.00040000       0.00020000       0.15000000
H        4.59919878      -0.00322463      -0.00089604       0.15000000
