22
Properties=species:S:1:pos:R:3:initial_charges:R:1 pbc="F F F"
C       -0.72340000       0.00030000      -0.00010000       0.00000000
C        0.72340000      -0.00020000      -0.00010000       0.00000000
C       -1.42060000      -0.95860000       0.73490000      -0.15000000
C        1.42075990       1.19749783      -0.15703182      -0.15000000
C       -1.42100000       0.95880000      -0.73500000      -0.15000000
C        1.42093998      -1.19803864       0.15624126      -0.15000000
C       -2.81540000      -0.95880000       0.73500000      -0.15000000
C        2.81565983       1.19758023      -0.15760889      -0.15000000
C       -2.81590000       0.95860000      -0.73490000      -0.15000000
C        2.81573992      -1.19800626       0.15575080      -0.15000000
C       -3.51320000      -0.00020000       0.00010000      -0.15000000
C        3.51309984      -0.00035846      -0.00109443      -0.15000000
H       -0.89230000      -1.71300000       1.31310000       0.15000000
H        0.89268579       2.14016557      -0.28022444       0.15000000
H       -0.89310000       1.71340000      -1.31340000       0.15000000
H        0.89281412      -2.14061058       0.27969989       0.15000000
H       -3.35840000      -1.70540000       1.30720000       0.15000000
H        3.35878428       2.12999772      -0.27989312       0.15000000
H       -3.35930000       1.70490000      -1.30700000       0.15000000
H        3.35901531      -2.13068446       0.27743672       0.15000000
H       -4.59920000      -0.00040000       0.00020000       0.15000000
H        4.59919977      -0.00035936      -0.00154255       0.15000000
