22
Properties=species:S:1:pos:R:3:initial_charges:R:1 pbc="F F F"
C       -0.72340000       0.00030000      -0.00010000       0.00000000
C        0.72340000      -0.00020000      -0.00010000       0.00000000
C       -1.42060000      -0.95860000       0.73490000      -0.15000000
C        1.42044312       0.28084995       1.17487249      -0.15000000
C       -1.42100000       0.95880000      -0.73500000      -0.15000000
C        1.42125686      -0.28110902      -1.17479483      -0.15000000
C       -2.81540000      -0.95880000       0.73500000      -0.15000000
C        2.81534307       0.28100080       1.17537353      -0.15000000
C       -2.81590000       0.95860000      -0.73490000      -0.15000000
C        2.81605681      -0.28104951      -1.17433451      -0.15000000
C       -3.51320000      -0.00020000       0.00010000      -0.15000000
C        3.51309993      -0.00009090       0.00059727      -0.15000000
H       -0.89230000      -1.71300000       1.31310000       0.15000000
H        0.89211968       0.50206684       2.09931751       0.15000000
H       -0.89310000       1.71340000      -1.31340000       0.15000000
H        0.89338032      -0.50225359      -2.09947978       0.15000000
H       -3.35840000      -1.70540000       1.30720000       0.15000000
H        3.35822094       0.49991132       2.09008757       0.15000000
H       -3.35930000       1.70490000      -1.30700000       0.15000000
H        3.35957895      -0.49972845      -2.08899697       0.15000000
H       -4.59920000      -0.00040000       0.00020000       0.15000000
H        4.59919990       0.00001856       0.00092282       0.15000000
