22
Properties=species:S:1:pos:R:3:initial_charges:R:1 pbc="F F F"
C       -0.72340000       0.00030000      -0.00010000       0.00000000
C        0.72340000      -0.00020000      -0.00010000       0.00000000
C       -1.42060000      -0.95860000       0.73490000      -0.15000000
C        1.42017252      -0.50216593       1.09897088      -0.15000000
C       -1.42100000       0.95880000      -0.73500000      -0.15000000
C        1.42152736       0.50160384      -1.09856853      -0.15000000
C       -2.81540000      -0.95880000       0.73500000      -0.15000000
C        2.81507231      -0.50245772       1.09975537      -0.15000000
C       -2.81590000       0.95860000      -0.73490000      -0.15000000
C        2.81632717       0.50126515      -1.09787239      -0.15000000
C       -3.51320000      -0.00020000       0.00010000      -0.15000000
C        3.51309971      -0.00074769       0.00111018      -0.15000000
H       -0.89230000      -1.71300000       1.31310000       0.15000000
H        0.89163619      -0.89695108       1.96352579       0.15000000
H       -0.89310000       1.71340000      -1.31340000       0.15000000
H        0.89386378       0.89667108      -1.96349271       0.15000000
H       -3.35840000      -1.70540000       1.30720000       0.15000000
H        3.35773951      -0.89314781       1.95545014       0.15000000
H       -3.35930000       1.70490000      -1.30700000       0.15000000
H        3.36005993       0.89202638      -1.95315279       0.15000000
H       -4.59920000      -0.00040000       0.00020000       0.15000000
H        4.59919957      -0.00094143       0.00166520       0.15000000
