22
Properties=species:S:1:pos:R:3:initial_charges:R:1 pbc="F F F"
C       -0.72340000       0.00030000      -0.00010000       0.00000000
C        0.72340000      -0.00020000      -0.00010000       0.00000000
C       -1.42060000      -0.95860000       0.73490000      -0.15000000
C        1.42009733      -0.71971170       0.97063903      -0.15000000
C       -1.42100000       0.95880000      -0.73500000      -0.15000000
C        1.42160249       0.71901739      -0.97018332      -0.15000000
C       -2.81540000      -0.95880000       0.73500000      -0.15000000
C        2.81499707      -0.72017076       0.97144593      -0.15000000
C       -2.81590000       0.95860000      -0.73490000      -0.15000000
C        2.81640226       0.71853083      -0.96947258      -0.15000000
C       -3.51320000      -0.00020000       0.00010000      -0.15000000
C        3.51309962      -0.00100840       0.00117031      -0.15000000
H       -0.89230000      -1.71300000       1.31310000       0.15000000
H        0.89150187      -1.28561692       1.73418292       0.15000000
H       -0.89310000       1.71340000      -1.31340000       0.15000000
H        0.89399808       1.28528328      -1.73410565       0.15000000
H       -3.35840000      -1.70540000       1.30720000       0.15000000
H        3.35760574      -1.28023636       1.72725169       0.15000000
H       -3.35930000       1.70490000      -1.30700000       0.15000000
H        3.36019351       1.27857167      -1.72478017       0.15000000
H       -4.59920000      -0.00040000       0.00020000       0.15000000
H        4.59919944      -0.00132150       0.00175096       0.15000000
