22
Properties=species:S:1:pos:R:3:initial_charges:R:1 pbc="F F F"
C       -0.72340000       0.00030000      -0.00010000       0.00000000
C        0.72340000      -0.00020000      -0.00010000       0.00000000
C       -1.42060000      -0.95860000       0.73490000      -0.15000000
C        1.42076268       1.20552672      -0.07308555      -0.15000000
C       -1.42100000       0.95880000      -0.73500000      -0.15000000
C        1.42093722      -1.20602717       0.07232024      -0.15000000
C       -2.81540000      -0.95880000       0.73500000      -0.15000000
C        2.81566262       1.20564800      -0.07362185      -0.15000000
C       -2.81590000       0.95860000      -0.73490000      -0.15000000
C        2.81573717      -1.20596183       0.07186686      -0.15000000
C       -3.51320000      -0.00020000       0.00010000      -0.15000000
C        3.51309986      -0.00029106      -0.00103581      -0.15000000
H       -0.89230000      -1.71300000       1.31310000       0.15000000
H        0.89269074       2.15449210      -0.13023365       0.15000000
H       -0.89310000       1.71340000      -1.31340000       0.15000000
H        0.89280918      -2.15491464       0.12971491       0.15000000
H       -3.35840000      -1.70540000       1.30720000       0.15000000
H        3.35878923       2.14432382      -0.13055295       0.15000000
H       -3.35930000       1.70490000      -1.30700000       0.15000000
H        3.35901041      -2.14485690       0.12820912       0.15000000
H       -4.59920000      -0.00040000       0.00020000       0.15000000
H        4.59919981      -0.00026161      -0.00145672       0.15000000
