22
Properties=species:S:1:pos:R:3:initial_charges:R:1 pbc="F F F"
C       -0.72340000       0.00030000      -0.00010000       0.00000000
C        0.72340000      -0.00020000      -0.00010000       0.00000000
C       -1.42060000      -0.95860000       0.73490000      -0.15000000
C        1.42005306      -0.84781256       0.86108870      -0.15000000
C       -1.42100000       0.95880000      -0.73500000      -0.15000000
C        1.42164673       0.84702516      -0.86061324      -0.15000000
C       -2.81540000      -0.95880000       0.73500000      -0.15000000
C        2.81495276      -0.84838414       0.86189096      -0.15000000
C       -2.81590000       0.95860000      -0.73490000      -0.15000000
C        2.81644646       0.84643973      -0.85991006      -0.15000000
C       -3.51320000      -0.00020000       0.00010000      -0.15000000
C        3.51309956      -0.00118671       0.00117962      -0.15000000
H       -0.89230000      -1.71300000       1.31310000       0.15000000
H        0.89142278      -1.51447342       1.53841764       0.15000000
H       -0.89310000       1.71340000      -1.31340000       0.15000000
H        0.89407716       1.51409941      -1.53831754       0.15000000
H       -3.35840000      -1.70540000       1.30720000       0.15000000
H        3.35752696      -1.50818888       1.53242130       0.15000000
H       -3.35930000       1.70490000      -1.30700000       0.15000000
H        3.36027216       1.50614695      -1.52989827       0.15000000
H       -4.59920000      -0.00040000       0.00020000       0.15000000
H        4.59919935      -0.00158123       0.00176327       0.15000000
