22
Properties=species:S:1:pos:R:3:initial_charges:R:1 pbc="F F F"
C       -0.72340000       0.00030000      -0.00010000       0.00000000
C        0.72340000      -0.00020000      -0.00010000       0.00000000
C       -1.42060000      -0.95860000       0.73490000      -0.15000000
C        1.41993027      -1.20312664       0.11492876      -0.15000000
C       -1.42100000       0.95880000      -0.73500000      -0.15000000
C        1.42176937       1.20188292      -0.11455047      -0.15000000
C       -2.81540000      -0.95880000       0.73500000      -0.15000000
C        2.81482980      -1.20419295       0.11548578      -0.15000000
C       -2.81590000       0.95860000      -0.73490000      -0.15000000
C        2.81656895       1.20086968      -0.11407826      -0.15000000
C       -3.51320000      -0.00020000       0.00010000      -0.15000000
C        3.51309927      -0.00200394       0.00086571      -0.15000000
H       -0.89230000      -1.71300000       1.31310000       0.15000000
H        0.89120344      -2.14915438       0.20515408       0.15000000
H       -0.89310000       1.71340000      -1.31340000       0.15000000
H        0.89429642       2.14855400      -0.20503224       0.15000000
H       -3.35840000      -1.70540000       1.30720000       0.15000000
H        3.35730838      -2.14068516       0.20514806       0.15000000
H       -3.35930000       1.70490000      -1.30700000       0.15000000
H        3.36049013       2.13685087      -0.20314661       0.15000000
H       -4.59920000      -0.00040000       0.00020000       0.15000000
H        4.59919894      -0.00276914       0.00130049       0.15000000
