22
Properties=species:S:1:pos:R:3:initial_charges:R:1 pbc="F F F"
C       -0.72340000       0.00030000      -0.00010000       0.00000000
C        0.72340000      -0.00020000      -0.00010000       0.00000000
C       -1.42060000      -0.95860000       0.73490000      -0.15000000
C        1.42062237       0.79954032       0.90528109      -0.15000000
C       -1.42100000       0.95880000      -0.73500000      -0.15000000
C        1.42107763      -0.79974196      -0.90552841      -0.15000000
C       -2.81540000      -0.95880000       0.73500000      -0.15000000
C        2.81552238       0.79985231       0.90542635      -0.15000000
C       -2.81590000       0.95860000      -0.73490000      -0.15000000
C        2.81587763      -0.79952973      -0.90537620      -0.15000000
C       -3.51320000      -0.00020000       0.00010000      -0.15000000
C        3.51310000       0.00011083       0.00001182      -0.15000000
H       -0.89230000      -1.71300000       1.31310000       0.15000000
H        0.89243998       1.42888524       1.61774828       0.15000000
H       -0.89310000       1.71340000      -1.31340000       0.15000000
H        0.89306002      -1.42909294      -1.61807003       0.15000000
H       -3.35840000      -1.70540000       1.30720000       0.15000000
H        3.35853979       1.42254908       1.61021057       0.15000000
H       -3.35930000       1.70490000      -1.30700000       0.15000000
H        3.35926021      -1.42204176      -1.61039987       0.15000000
H       -4.59920000      -0.00040000       0.00020000       0.15000000
H        4.59920001       0.00031638       0.00007166       0.15000000
