22
Properties=species:S:1:pos:R:3:initial_charges:R:1 pbc="F F F"
C       -0.72340000       0.00030000      -0.00010000       0.00000000
C        0.72340000      -0.00020000      -0.00010000       0.00000000
C       -1.42060000      -0.95860000       0.73490000      -0.15000000
C        1.42011568      -0.66663199      -1.00800585      -0.15000000
C       -1.42100000       0.95880000      -0.73500000      -0.15000000
C        1.42158385       0.66506954       1.00775801      -0.15000000
C       -2.81540000      -0.95880000       0.73500000      -0.15000000
C        2.81501514      -0.66788016      -1.00826021      -0.15000000
C       -2.81590000       0.95860000      -0.73490000      -0.15000000
C        2.81638338       0.66392119       1.00751067      -0.15000000
C       -3.51320000      -0.00020000       0.00010000      -0.15000000
C        3.51309913      -0.00241105      -0.00038817      -0.15000000
H       -0.89230000      -1.71300000       1.31310000       0.15000000
H        0.89153480      -1.19033246      -1.80110183       0.15000000
H       -0.89310000       1.71340000      -1.31340000       0.15000000
H        0.89396498       1.18949212       1.80097935       0.15000000
H       -3.35840000      -1.70540000       1.30720000       0.15000000
H        3.35763803      -1.18680324      -1.79287427       0.15000000
H       -3.35930000       1.70490000      -1.30700000       0.15000000
H        3.36016010       1.18188075       1.79228388       0.15000000
H       -4.59920000      -0.00040000       0.00020000       0.15000000
H        4.59919874      -0.00335331      -0.00052827       0.15000000
