22
Properties=species:S:1:pos:R:3:initial_charges:R:1 pbc="F F F"
C       -0.72340000       0.00030000      -0.00010000       0.00000000
C        0.72340000      -0.00020000      -0.00010000       0.00000000
C       -1.42060000      -0.95860000       0.73490000      -0.15000000
C        1.41994349      -1.16488061       0.32202542      -0.15000000
C       -1.42100000       0.95880000      -0.73500000      -0.15000000
C        1.42175619       1.16374280      -0.32159312      -0.15000000
C       -2.81540000      -0.95880000       0.73500000      -0.15000000
C        2.81484305      -1.16584132       0.32267543      -0.15000000
C       -2.81590000       0.95860000      -0.73490000      -0.15000000
C        2.81655580       1.16281963      -0.32103584      -0.15000000
C       -3.51320000      -0.00020000       0.00010000      -0.15000000
C        3.51309934      -0.00182348       0.00099687      -0.15000000
H       -0.89230000      -1.71300000       1.31310000       0.15000000
H        0.89122704      -2.08086583       0.57518773       0.15000000
H       -0.89310000       1.71340000      -1.31340000       0.15000000
H        0.89427284       2.08032260      -0.57505631       0.15000000
H       -3.35840000      -1.70540000       1.30720000       0.15000000
H        3.35733193      -2.07253926       0.57356315       0.15000000
H       -3.35930000       1.70490000      -1.30700000       0.15000000
H        3.36046672       2.06911176      -0.57131510       0.15000000
H       -4.59920000      -0.00040000       0.00020000       0.15000000
H        4.59919903      -0.00250727       0.00149275       0.15000000
