22
Properties=species:S:1:pos:R:3:initial_charges:R:1 pbc="F F F"
C       -0.72340000       0.00030000      -0.00010000       0.00000000
C        0.72340000      -0.00020000      -0.00010000       0.00000000
C       -1.42060000      -0.95860000       0.73490000      -0.15000000
C        1.42071272       1.06095410       0.57707023      -0.15000000
C       -1.42100000       0.95880000      -0.73500000      -0.15000000
C        1.42098726      -1.06121297      -0.57754741      -0.15000000
C       -2.81540000      -0.95880000       0.73500000      -0.15000000
C        2.81561272       1.06126789       0.57693515      -0.15000000
C       -2.81590000       0.95860000      -0.73490000      -0.15000000
C        2.81578727      -1.06099055      -0.57764184      -0.15000000
C       -3.51320000      -0.00020000       0.00010000      -0.15000000
C        3.51309999       0.00007219      -0.00043097      -0.15000000
H       -0.89230000      -1.71300000       1.31310000       0.15000000
H        0.89260142       1.89603400       1.03138420       0.15000000
H       -0.89310000       1.71340000      -1.31340000       0.15000000
H        0.89289855      -1.89630200      -1.03180441       0.15000000
H       -3.35840000      -1.70540000       1.30720000       0.15000000
H        3.35870046       1.88745052       1.02617668       0.15000000
H       -3.35930000       1.70490000      -1.30700000       0.15000000
H        3.35909949      -1.88710412      -1.02729997       0.15000000
H       -4.59920000      -0.00040000       0.00020000       0.15000000
H        4.59919999       0.00026317      -0.00057342       0.15000000
