22
Properties=species:S:1:pos:R:3:initial_charges:R:1 pbc="F F F"
C       -0.72340000       0.00030000      -0.00010000       0.00000000
C        0.72340000      -0.00020000      -0.00010000       0.00000000
C       -1.42060000      -0.95860000       0.73490000      -0.15000000
C        1.42008578      -0.75315184       0.94494549      -0.15000000
C       -1.42100000       0.95880000      -0.73500000      -0.15000000
C        1.42161404       0.75243453      -0.94448362      -0.15000000
C       -2.81540000      -0.95880000       0.73500000      -0.15000000
C        2.81498551      -0.75363907       0.94575271      -0.15000000
C       -2.81590000       0.95860000      -0.73490000      -0.15000000
C        2.81641380       0.75192317      -0.94377348      -0.15000000
C       -3.51320000      -0.00020000       0.00010000      -0.15000000
C        3.51309960      -0.00105283       0.00117497      -0.15000000
H       -0.89230000      -1.71300000       1.31310000       0.15000000
H        0.89148123      -1.34535952       1.68826807       0.15000000
H       -0.89310000       1.71340000      -1.31340000       0.15000000
H        0.89401872       1.34501609      -1.68818456       0.15000000
H       -3.35840000      -1.70540000       1.30720000       0.15000000
H        3.35758517      -1.33974086       1.68155858       0.15000000
H       -3.35930000       1.70490000      -1.30700000       0.15000000
H        3.36021405       1.33798258      -1.67906926       0.15000000
H       -4.59920000      -0.00040000       0.00020000       0.15000000
H        4.59919942      -0.00138623       0.00175743       0.15000000
