22
Properties=species:S:1:pos:R:3:initial_charges:R:1 pbc="F F F"
C       -0.72340000       0.00030000      -0.00010000       0.00000000
C        0.72340000      -0.00020000      -0.00010000       0.00000000
C       -1.42060000      -0.95860000       0.73490000      -0.15000000
C        1.42015937      -0.54021731       1.08079140      -0.15000000
C       -1.42100000       0.95880000      -0.73500000      -0.15000000
C        1.42154050       0.53963401      -1.08037825      -0.15000000
C       -2.81540000      -0.95880000       0.73500000      -0.15000000
C        2.81505915      -0.54053660       1.08158205      -0.15000000
C       -2.81590000       0.95860000      -0.73490000      -0.15000000
C        2.81634031       0.53927094      -1.07967753      -0.15000000
C       -3.51320000      -0.00020000       0.00010000      -0.15000000
C        3.51309969      -0.00079018       0.00112398      -0.15000000
H       -0.89230000      -1.71300000       1.31310000       0.15000000
H        0.89161270      -0.96493439       1.93103547       0.15000000
H       -0.89310000       1.71340000      -1.31340000       0.15000000
H        0.89388727       0.96464611      -1.93099426       0.15000000
H       -3.35840000      -1.70540000       1.30720000       0.15000000
H        3.35771611      -0.96085211       1.92312722       0.15000000
H       -3.35930000       1.70490000      -1.30700000       0.15000000
H        3.36008330       0.95964286      -1.92079300       0.15000000
H       -4.59920000      -0.00040000       0.00020000       0.15000000
H        4.59919955      -0.00100340       0.00168499       0.15000000
