22
Properties=species:S:1:pos:R:3:initial_charges:R:1 pbc="F F F"
C       -0.72340000       0.00030000      -0.00010000       0.00000000
C        0.72340000      -0.00020000      -0.00010000       0.00000000
C       -1.42060000      -0.95860000       0.73490000      -0.15000000
C        1.41993670      -1.18451442       0.24001352      -0.15000000
C       -1.42100000       0.95880000      -0.73500000      -0.15000000
C        1.42176296       1.18333313      -0.23960060      -0.15000000
C       -2.81540000      -0.95880000       0.73500000      -0.15000000
C        2.81483625      -1.18551931       0.24062856      -0.15000000
C       -2.81590000       0.95860000      -0.73490000      -0.15000000
C        2.81656256       1.18237216      -0.23907545      -0.15000000
C       -3.51320000      -0.00020000       0.00010000      -0.15000000
C        3.51309931      -0.00189839       0.00094821      -0.15000000
H       -0.89230000      -1.71300000       1.31310000       0.15000000
H        0.89121493      -2.11592761       0.42865050       0.15000000
H       -0.89310000       1.71340000      -1.31340000       0.15000000
H        0.89428495       2.11536133      -0.42852172       0.15000000
H       -3.35840000      -1.70540000       1.30720000       0.15000000
H        3.35731984      -2.10751008       0.42767016       0.15000000
H       -3.35930000       1.70490000      -1.30700000       0.15000000
H        3.36047874       2.10391475      -0.42551219       0.15000000
H       -4.59920000      -0.00040000       0.00020000       0.15000000
H        4.59919899      -0.00261601       0.00142136       0.15000000
