22
Properties=species:S:1:pos:R:3:initial_charges:R:1 pbc="F F F"
C       -0.72340000       0.00030000      -0.00010000       0.00000000
C        0.72340000      -0.00020000      -0.00010000       0.00000000
C       -1.42060000      -0.95860000       0.73490000      -0.15000000
C        1.42048503       0.40212707       1.13903297      -0.15000000
C       -1.42100000       0.95880000      -0.73500000      -0.15000000
C        1.42121496      -0.40236053      -1.13902195      -0.15000000
C       -2.81540000      -0.95880000       0.73500000      -0.15000000
C        2.81538500       0.40232683       1.13946511      -0.15000000
C       -2.81590000       0.95860000      -0.73490000      -0.15000000
C        2.81601492      -0.40225587      -1.13862076      -0.15000000
C       -3.51320000      -0.00020000       0.00010000      -0.15000000
C        3.51309996      -0.00002389       0.00048127      -0.15000000
H       -0.89230000      -1.71300000       1.31310000       0.15000000
H        0.89219457       0.71876392       2.03530940       0.15000000
H       -0.89310000       1.71340000      -1.31340000       0.15000000
H        0.89330544      -0.71894854      -2.03550641       0.15000000
H       -3.35840000      -1.70540000       1.30720000       0.15000000
H        3.35829550       0.71565075       2.02626626       0.15000000
H       -3.35930000       1.70490000      -1.30700000       0.15000000
H        3.35950444      -0.71534615      -2.02543407       0.15000000
H       -4.59920000      -0.00040000       0.00020000       0.15000000
H        4.59919994       0.00011694       0.00075436       0.15000000
