22
Properties=species:S:1:pos:R:3:initial_charges:R:1 pbc="F F F"
C       -0.72340000       0.00030000      -0.00010000       0.00000000
C        0.72340000      -0.00020000      -0.00010000       0.00000000
C       -1.42060000      -0.95860000       0.73490000      -0.15000000
C        1.42034982       0.01087543      -1.20822119      -0.15000000
C       -1.42100000       0.95880000      -0.73500000      -0.15000000
C        1.42134976      -0.01229481       1.20760107      -0.15000000
C       -2.81540000      -0.95880000       0.73500000      -0.15000000
C        2.81524938       0.00990046      -1.20886047      -0.15000000
C       -2.81590000       0.95860000      -0.73490000      -0.15000000
C        2.81614938      -0.01319093       1.20702341      -0.15000000
C       -3.51320000      -0.00020000       0.00010000      -0.15000000
C        3.51309926      -0.00203672      -0.00103619      -0.15000000
H       -0.89230000      -1.71300000       1.31310000       0.15000000
H        0.89195316       0.02023290      -2.15867928       0.15000000
H       -0.89310000       1.71340000      -1.31340000       0.15000000
H        0.89354662      -0.02106131       2.15836276       0.15000000
H       -3.35840000      -1.70540000       1.30720000       0.15000000
H        3.35805454       0.01841226      -2.14940823       0.15000000
H       -3.35930000       1.70490000      -1.30700000       0.15000000
H        3.35974382      -0.02265469       2.14737427       0.15000000
H       -4.59920000      -0.00040000       0.00020000       0.15000000
H        4.59919893      -0.00280372      -0.00146936       0.15000000
