22
Properties=species:S:1:pos:R:3:initial_charges:R:1 pbc="F F F"
C       -0.72340000       0.00030000      -0.00010000       0.00000000
C        0.72340000      -0.00020000      -0.00010000       0.00000000
C       -1.42060000      -0.95860000       0.73490000      -0.15000000
C        1.42024870      -0.28173167      -1.17507249      -0.15000000
C       -1.42100000       0.95880000      -0.73500000      -0.15000000
C        1.42145085       0.28022661       1.17459483      -0.15000000
C       -2.81540000      -0.95880000       0.73500000      -0.15000000
C        2.81514821      -0.28284664      -1.17557353      -0.15000000
C       -2.81590000       0.95860000      -0.73490000      -0.15000000
C        2.81625043       0.27920304       1.17413451      -0.15000000
C       -3.51320000      -0.00020000       0.00010000      -0.15000000
C        3.51309919      -0.00223729      -0.00079727      -0.15000000
H       -0.89230000      -1.71300000       1.31310000       0.15000000
H        0.89177248      -0.50258333      -2.09951751       0.15000000
H       -0.89310000       1.71340000      -1.31340000       0.15000000
H        0.89372729       0.50173598       2.09927978       0.15000000
H       -3.35840000      -1.70540000       1.30720000       0.15000000
H        3.35787464      -0.50213234      -2.09028757       0.15000000
H       -3.35930000       1.70490000      -1.30700000       0.15000000
H        3.35992359       0.49750626       2.08879697       0.15000000
H       -4.59920000      -0.00040000       0.00020000       0.15000000
H        4.59919883      -0.00309744      -0.00112282       0.15000000
