22
Properties=species:S:1:pos:R:3:initial_charges:R:1 pbc="F F F"
C       -0.72340000       0.00030000      -0.00010000       0.00000000
C        0.72340000      -0.00020000      -0.00010000       0.00000000
C       -1.42060000      -0.95860000       0.73490000      -0.15000000
C        1.42021317      -0.38453324       1.14539461      -0.15000000
C       -1.42100000       0.95880000      -0.73500000      -0.15000000
C        1.42148673       0.38403237      -1.14502901      -0.15000000
C       -2.81540000      -0.95880000       0.73500000      -0.15000000
C        2.81511299      -0.38474408       1.14615491      -0.15000000
C       -2.81590000       0.95860000      -0.73490000      -0.15000000
C        2.81628657       0.38376566      -1.14435166      -0.15000000
C       -3.51320000      -0.00020000       0.00010000      -0.15000000
C        3.51309975      -0.00062347       0.00106002      -0.15000000
H       -0.89230000      -1.71300000       1.31310000       0.15000000
H        0.89170882      -0.68678413       2.04649877       0.15000000
H       -0.89310000       1.71340000      -1.31340000       0.15000000
H        0.89379116       0.68652719      -2.04649175       0.15000000
H       -3.35840000      -1.70540000       1.30720000       0.15000000
H        3.35781184      -0.68385049       2.03798073       0.15000000
H       -3.35930000       1.70490000      -1.30700000       0.15000000
H        3.35998768       0.68298408      -2.03581206       0.15000000
H       -4.59920000      -0.00040000       0.00020000       0.15000000
H        4.59919963      -0.00076019       0.00159302       0.15000000
