22
Properties=species:S:1:pos:R:3:initial_charges:R:1 pbc="F F F"
C       -0.72340000       0.00030000      -0.00010000       0.00000000
C        0.72340000      -0.00020000      -0.00010000       0.00000000
C       -1.42060000      -0.95860000       0.73490000      -0.15000000
C        1.42001043      -0.97117983      -0.71937089      -0.15000000
C       -1.42100000       0.95880000      -0.73500000      -0.15000000
C        1.42168911       0.96964205       0.71935864      -0.15000000
C       -2.81540000      -0.95880000       0.73500000      -0.15000000
C        2.81490988      -0.97246880      -0.71934788      -0.15000000
C       -2.81590000       0.95860000      -0.73490000      -0.15000000
C        2.81648863       0.96844929       0.71935411      -0.15000000
C       -3.51320000      -0.00020000       0.00010000      -0.15000000
C        3.51309912      -0.00243440       0.00005570      -0.15000000
H       -0.89230000      -1.71300000       1.31310000       0.15000000
H        0.89134673      -1.73454107      -1.28545875       0.15000000
H       -0.89310000       1.71340000      -1.31340000       0.15000000
H        0.89415306       1.73374674       1.28544217       0.15000000
H       -3.35840000      -1.70540000       1.30720000       0.15000000
H        3.35745084      -1.72846209      -1.27922593       0.15000000
H       -3.35930000       1.70490000      -1.30700000       0.15000000
H        3.36034730       1.72356897       1.27958284       0.15000000
H       -4.59920000      -0.00040000       0.00020000       0.15000000
H        4.59919872      -0.00339039       0.00011794       0.15000000
