22
Properties=species:S:1:pos:R:3:initial_charges:R:1 pbc="F F F"
C       -0.72340000       0.00030000      -0.00010000       0.00000000
C        0.72340000      -0.00020000      -0.00010000       0.00000000
C       -1.42060000      -0.95860000       0.73490000      -0.15000000
C        1.42068598       0.98360121      -0.70106075      -0.15000000
C       -1.42100000       0.95880000      -0.73500000      -0.15000000
C        1.42101379      -0.98445921       0.70017911      -0.15000000
C       -2.81540000      -0.95880000       0.73500000      -0.15000000
C        2.81558579       0.98334661      -0.70183527      -0.15000000
C       -2.81590000       0.95860000      -0.73490000      -0.15000000
C        2.81581363      -0.98471730       0.69950456      -0.15000000
C       -3.51320000      -0.00020000       0.00010000      -0.15000000
C        3.51309965      -0.00091962      -0.00135625      -0.15000000
H       -0.89230000      -1.71300000       1.31310000       0.15000000
H        0.89255376       1.75811336      -1.25230338       0.15000000
H       -0.89310000       1.71340000      -1.31340000       0.15000000
H        0.89294610      -1.75871917       1.25178300       0.15000000
H       -3.35840000      -1.70540000       1.30720000       0.15000000
H        3.35865268       1.74919147      -1.24763743       0.15000000
H       -3.35930000       1.70490000      -1.30700000       0.15000000
H        3.35914648      -1.75111718       1.24472457       0.15000000
H       -4.59920000      -0.00040000       0.00020000       0.15000000
H        4.59919949      -0.00117473      -0.00192771       0.15000000
