22
Properties=species:S:1:pos:R:3:initial_charges:R:1 pbc="F F F"
C       -0.72340000       0.00030000      -0.00010000       0.00000000
C        0.72340000      -0.00020000      -0.00010000       0.00000000
C       -1.42060000      -0.95860000       0.73490000      -0.15000000
C        1.42017966      -0.48149005      -1.10837638      -0.15000000
C       -1.42100000       0.95880000      -0.73500000      -0.15000000
C        1.42151987       0.47994624       1.10801112      -0.15000000
C       -2.81540000      -0.95880000       0.73500000      -0.15000000
C        2.81507915      -0.48268241      -1.10875990      -0.15000000
C       -2.81590000       0.95860000      -0.73490000      -0.15000000
C        2.81631943       0.47885096       1.10765183      -0.15000000
C       -3.51320000      -0.00020000       0.00010000      -0.15000000
C        3.51309916      -0.00234206      -0.00060032      -0.15000000
H       -0.89230000      -1.71300000       1.31310000       0.15000000
H        0.89164913      -0.85951189      -1.98039480       0.15000000
H       -0.89310000       1.71340000      -1.31340000       0.15000000
H        0.89385064       0.85866300       1.98021500       0.15000000
H       -3.35840000      -1.70540000       1.30720000       0.15000000
H        3.35775184      -0.85747793      -1.97153139       0.15000000
H       -3.35930000       1.70490000      -1.30700000       0.15000000
H        3.36004632       0.85266427       1.97047793       0.15000000
H       -4.59920000      -0.00040000       0.00020000       0.15000000
H        4.59919877      -0.00325138      -0.00083674       0.15000000
