22
Properties=species:S:1:pos:R:3:initial_charges:R:1 pbc="F F F"
C       -0.72340000       0.00030000      -0.00010000       0.00000000
C        0.72340000      -0.00020000      -0.00010000       0.00000000
C       -1.42060000      -0.95860000       0.73490000      -0.15000000
C        1.42008053      -0.76833737      -0.93284849      -0.15000000
C       -1.42100000       0.95880000      -0.73500000      -0.15000000
C        1.42161900       0.76677365       0.93267204      -0.15000000
C       -2.81540000      -0.95880000       0.73500000      -0.15000000
C        2.81497999      -0.76960793      -0.93302138      -0.15000000
C       -2.81590000       0.95860000      -0.73490000      -0.15000000
C        2.81641852       0.76560309       0.93249570      -0.15000000
C       -3.51320000      -0.00020000       0.00010000      -0.15000000
C        3.51309912      -0.00243434      -0.00025624      -0.15000000
H       -0.89230000      -1.71300000       1.31310000       0.15000000
H        0.89147200      -1.37206905      -1.66683912       0.15000000
H       -0.89310000       1.71340000      -1.31340000       0.15000000
H        0.89402778       1.37123859       1.66675000       0.15000000
H       -3.35840000      -1.70540000       1.30720000       0.15000000
H        3.35757551      -1.36770382      -1.65911462       0.15000000
H       -3.35930000       1.70490000      -1.30700000       0.15000000
H        3.36022261       1.36275532       1.65880869       0.15000000
H       -4.59920000      -0.00040000       0.00020000       0.15000000
H        4.59919873      -0.00338814      -0.00033632       0.15000000
