22
Properties=species:S:1:pos:R:3:initial_charges:R:1 pbc="F F F"
C       -0.72340000       0.00030000      -0.00010000       0.00000000
C        0.72340000      -0.00020000      -0.00010000       0.00000000
C       -1.42060000      -0.95860000       0.73490000      -0.15000000
C        1.42058262       0.68451352      -0.99534987      -0.15000000
C       -1.42100000       0.95880000      -0.73500000      -0.15000000
C        1.42111707      -0.68560611       0.99450111      -0.15000000
C       -2.81540000      -0.95880000       0.73500000      -0.15000000
C        2.81548233       0.68398031      -0.99615548      -0.15000000
C       -2.81590000       0.95860000      -0.73490000      -0.15000000
C        2.81591683      -0.68610842       0.99379065      -0.15000000
C       -3.51320000      -0.00020000       0.00010000      -0.15000000
C        3.51309949      -0.00136403      -0.00136410      -0.15000000
H       -0.89230000      -1.71300000       1.31310000       0.15000000
H        0.89236910       1.22379183      -1.77818482       0.15000000
H       -0.89310000       1.71340000      -1.31340000       0.15000000
H        0.89313072      -1.22450185       1.77771411       0.15000000
H       -3.35840000      -1.70540000       1.30720000       0.15000000
H        3.35846874       1.21695244      -1.77104028       0.15000000
H       -3.35930000       1.70490000      -1.30700000       0.15000000
H        3.35933009      -1.21982385       1.76818983       0.15000000
H       -4.59920000      -0.00040000       0.00020000       0.15000000
H        4.59919927      -0.00182184      -0.00194222       0.15000000
