22
Properties=species:S:1:pos:R:3:initial_charges:R:1 pbc="F F F"
C       -0.72340000       0.00030000      -0.00010000       0.00000000
C        0.72340000      -0.00020000      -0.00010000       0.00000000
C       -1.42060000      -0.95860000       0.73490000      -0.15000000
C        1.42026956      -0.22137325       1.18770206      -0.15000000
C       -1.42100000       0.95880000      -0.73500000      -0.15000000
C        1.42143037       0.22094739      -1.18739502      -0.15000000
C       -2.81540000      -0.95880000       0.73500000      -0.15000000
C        2.81516941      -0.22148092       1.18841722      -0.15000000
C       -2.81590000       0.95860000      -0.73490000      -0.15000000
C        2.81623024       0.22077285      -1.18675423      -0.15000000
C       -3.51320000      -0.00020000       0.00010000      -0.15000000
C        3.51309980      -0.00046729       0.00097350      -0.15000000
H       -0.89230000      -1.71300000       1.31310000       0.15000000
H        0.89180957      -0.39527142       2.12212736       0.15000000
H       -0.89310000       1.71340000      -1.31340000       0.15000000
H        0.89369042       0.39504077      -2.12215855       0.15000000
H       -3.35840000      -1.70540000       1.30720000       0.15000000
H        3.35791216      -0.39356012       2.11316531       0.15000000
H       -3.35930000       1.70490000      -1.30700000       0.15000000
H        3.35988747       0.39301017      -2.11120830       0.15000000
H       -4.59920000      -0.00040000       0.00020000       0.15000000
H        4.59919971      -0.00053215       0.00146809       0.15000000
