22
Properties=species:S:1:pos:R:3:initial_charges:R:1 pbc="F F F"
C       -0.72340000       0.00030000      -0.00010000       0.00000000
C        0.72340000      -0.00020000      -0.00010000       0.00000000
C       -1.42060000      -0.95860000       0.73490000      -0.15000000
C        1.42076213       1.20394796       0.09546299      -0.15000000
C       -1.42100000       0.95880000      -0.73500000      -0.15000000
C        1.42093779      -1.20437344      -0.09616969      -0.15000000
C       -2.81540000      -0.95880000       0.73500000      -0.15000000
C        2.81566209       1.20413799       0.09501589      -0.15000000
C       -2.81590000       0.95860000      -0.73490000      -0.15000000
C        2.81573776      -1.20425033      -0.09654248      -0.15000000
C       -3.51320000      -0.00020000       0.00010000      -0.15000000
C        3.51309991      -0.00016931      -0.00090520      -0.15000000
H       -0.89230000      -1.71300000       1.31310000       0.15000000
H        0.89268975       2.15163332       0.17091611       0.15000000
H       -0.89310000       1.71340000      -1.31340000       0.15000000
H        0.89281018      -2.15201242      -0.17141859       0.15000000
H       -3.35840000      -1.70540000       1.30720000       0.15000000
H        3.35878829       2.14160014       0.16930338       0.15000000
H       -3.35930000       1.70490000      -1.30700000       0.15000000
H        3.35901145      -2.14185129      -0.17139135       0.15000000
H       -4.59920000      -0.00040000       0.00020000       0.15000000
H        4.59919987      -0.00008523      -0.00126568       0.15000000
