22
Properties=species:S:1:pos:R:3:initial_charges:R:1 pbc="F F F"
C       -0.72340000       0.00030000      -0.00010000       0.00000000
C        0.72340000      -0.00020000      -0.00010000       0.00000000
C       -1.42060000      -0.95860000       0.73490000      -0.15000000
C        1.41993542      -1.18824285      -0.22103241      -0.15000000
C       -1.42100000       0.95880000      -0.73500000      -0.15000000
C        1.42176417       1.18685374       0.22128861      -0.15000000
C       -2.81540000      -0.95880000       0.73500000      -0.15000000
C        2.81483490      -1.18944007      -0.22065801      -0.15000000
C       -2.81590000       0.95860000      -0.73490000      -0.15000000
C        2.81656372       1.18573092       0.22159610      -0.15000000
C       -3.51320000      -0.00020000       0.00010000      -0.15000000
C        3.51309919      -0.00223759       0.00059681      -0.15000000
H       -0.89230000      -1.71300000       1.31310000       0.15000000
H        0.89121266      -2.12248548      -0.39511320       0.15000000
H       -0.89310000       1.71340000      -1.31340000       0.15000000
H        0.89428717       2.12179962       0.39519960       0.15000000
H       -3.35840000      -1.70540000       1.30720000       0.15000000
H        3.35731747      -2.11437570      -0.39254963       0.15000000
H       -3.35930000       1.70490000      -1.30700000       0.15000000
H        3.36048085       2.10999708       0.39402129       0.15000000
H       -4.59920000      -0.00040000       0.00020000       0.15000000
H        4.59919882      -0.00310753       0.00090729       0.15000000
