22
Properties=species:S:1:pos:R:3:initial_charges:R:1 pbc="F F F"
C       -0.72340000       0.00030000      -0.00010000       0.00000000
C        0.72340000      -0.00020000      -0.00010000       0.00000000
C       -1.42060000      -0.95860000       0.73490000      -0.15000000
C        1.42014054      -0.59470123      -1.05202179      -0.15000000
C       -1.42100000       0.95880000      -0.73500000      -0.15000000
C        1.42155899       0.59314377       1.05172660      -0.15000000
C       -2.81540000      -0.95880000       0.73500000      -0.15000000
C        2.81504001      -0.59592979      -1.05232897      -0.15000000
C       -2.81590000       0.95860000      -0.73490000      -0.15000000
C        2.81635853       0.59201430       1.05143338      -0.15000000
C       -3.51320000      -0.00020000       0.00010000      -0.15000000
C        3.51309914      -0.00238791      -0.00047445      -0.15000000
H       -0.89230000      -1.71300000       1.31310000       0.15000000
H        0.89157922      -1.06180197      -1.87973006       0.15000000
H       -0.89310000       1.71340000      -1.31340000       0.15000000
H        0.89392055       1.06095701       1.87958484       0.15000000
H       -3.35840000      -1.70540000       1.30720000       0.15000000
H        3.35768224      -1.05885734      -1.87121691       0.15000000
H       -3.35930000       1.70490000      -1.30700000       0.15000000
H        3.36011589       1.05396867       1.87043907       0.15000000
H       -4.59920000      -0.00040000       0.00020000       0.15000000
H        4.59919875      -0.00331901      -0.00065376       0.15000000
