22
Properties=species:S:1:pos:R:3:initial_charges:R:1 pbc="F F F"
C       -0.72340000       0.00030000      -0.00010000       0.00000000
C        0.72340000      -0.00020000      -0.00010000       0.00000000
C       -1.42060000      -0.95860000       0.73490000      -0.15000000
C        1.42016640      -0.51987529      -1.09091287      -0.15000000
C       -1.42100000       0.95880000      -0.73500000      -0.15000000
C        1.42153314       0.51832612       1.09057081      -0.15000000
C       -2.81540000      -0.95880000       0.73500000      -0.15000000
C        2.81506588      -0.52108061      -1.09127137      -0.15000000
C       -2.81590000       0.95860000      -0.73490000      -0.15000000
C        2.81633269       0.51721868       1.09023314      -0.15000000
C       -3.51320000      -0.00020000       0.00010000      -0.15000000
C        3.51309915      -0.00235881      -0.00055890      -0.15000000
H       -0.89230000      -1.71300000       1.31310000       0.15000000
H        0.89162543      -0.92809974      -1.94920093       0.15000000
H       -0.89310000       1.71340000      -1.31340000       0.15000000
H        0.89387435       0.92725177       1.94903270       0.15000000
H       -3.35840000      -1.70540000       1.30720000       0.15000000
H        3.35772824      -0.92575822      -1.94044366       0.15000000
H       -3.35930000       1.70490000      -1.30700000       0.15000000
H        3.36006991       0.92091635       1.93948118       0.15000000
H       -4.59920000      -0.00040000       0.00020000       0.15000000
H        4.59919876      -0.00327605      -0.00077655       0.15000000
