22
Properties=species:S:1:pos:R:3:initial_charges:R:1 pbc="F F F"
C       -0.72340000       0.00030000      -0.00010000       0.00000000
C        0.72340000      -0.00020000      -0.00010000       0.00000000
C       -1.42060000      -0.95860000       0.73490000      -0.15000000
C        1.42076073       1.19987917       0.13743735      -0.15000000
C       -1.42100000       0.95880000      -0.73500000      -0.15000000
C        1.42093920      -1.20028725      -0.13812780      -0.15000000
C       -2.81540000      -0.95880000       0.73500000      -0.15000000
C        2.81566069       1.20008441       0.13701397      -0.15000000
C       -2.81590000       0.95860000      -0.73490000      -0.15000000
C        2.81573918      -1.20015150      -0.13847925      -0.15000000
C       -3.51320000      -0.00020000       0.00010000      -0.15000000
C        3.51309992      -0.00014182      -0.00086999      -0.15000000
H       -0.89230000      -1.71300000       1.31310000       0.15000000
H        0.89268724       2.14435407       0.24591187       0.15000000
H       -0.89310000       1.71340000      -1.31340000       0.15000000
H        0.89281270      -2.14472270      -0.24640935       0.15000000
H       -3.35840000      -1.70540000       1.30720000       0.15000000
H        3.35878580       2.13438277       0.24397971       0.15000000
H       -3.35930000       1.70490000      -1.30700000       0.15000000
H        3.35901397      -2.13456923      -0.24599776       0.15000000
H       -4.59920000      -0.00040000       0.00020000       0.15000000
H        4.59919988      -0.00004543      -0.00121422       0.15000000
