22
Properties=species:S:1:pos:R:3:initial_charges:R:1 pbc="F F F"
C       -0.72340000       0.00030000      -0.00010000       0.00000000
C        0.72340000      -0.00020000      -0.00010000       0.00000000
C       -1.42060000      -0.95860000       0.73490000      -0.15000000
C        1.42055128       0.59381951       1.05182179      -0.15000000
C       -1.42100000       0.95880000      -0.73500000      -0.15000000
C        1.42114872      -0.59402619      -1.05192660      -0.15000000
C       -2.81540000      -0.95880000       0.73500000      -0.15000000
C        2.81545127       0.59408395       1.05212897      -0.15000000
C       -2.81590000       0.95860000      -0.73490000      -0.15000000
C        2.81594871      -0.59386077      -1.05163338      -0.15000000
C       -3.51320000      -0.00020000       0.00010000      -0.15000000
C        3.51309999       0.00005972       0.00027445      -0.15000000
H       -0.89230000      -1.71300000       1.31310000       0.15000000
H        0.89231294       1.06128547       1.87953006       0.15000000
H       -0.89310000       1.71340000      -1.31340000       0.15000000
H        0.89318706      -1.06147462      -1.87978484       0.15000000
H       -3.35840000      -1.70540000       1.30720000       0.15000000
H        3.35841334       1.05663633       1.87101691       0.15000000
H       -3.35930000       1.70490000      -1.30700000       0.15000000
H        3.35938664      -1.05619087      -1.87063907       0.15000000
H       -4.59920000      -0.00040000       0.00020000       0.15000000
H        4.59919998       0.00024014       0.00045376       0.15000000
