22
Properties=species:S:1:pos:R:3:initial_charges:R:1 pbc="F F F"
C       -0.72340000       0.00030000      -0.00010000       0.00000000
C        0.72340000      -0.00020000      -0.00010000       0.00000000
C       -1.42060000      -0.95860000       0.73490000      -0.15000000
C        1.42007454      -0.78567492       0.91810056      -0.15000000
C       -1.42100000       0.95880000      -0.73500000      -0.15000000
C        1.42162527       0.78493441      -0.91763334      -0.15000000
C       -2.81540000      -0.95880000       0.73500000      -0.15000000
C        2.81497426      -0.78619032       0.91890710      -0.15000000
C       -2.81590000       0.95860000      -0.73490000      -0.15000000
C        2.81642502       0.78439829      -0.91692466      -0.15000000
C       -3.51320000      -0.00020000       0.00010000      -0.15000000
C        3.51309959      -0.00109739       0.00117808      -0.15000000
H       -0.89230000      -1.71300000       1.31310000       0.15000000
H        0.89146115      -1.40346331       1.64029620       0.15000000
H       -0.89310000       1.71340000      -1.31340000       0.15000000
H        0.89403880       1.40310988      -1.64020681       0.15000000
H       -3.35840000      -1.70540000       1.30720000       0.15000000
H        3.35756517      -1.39761443       1.63381663       0.15000000
H       -3.35930000       1.70490000      -1.30700000       0.15000000
H        3.36023401       1.39576202      -1.63131277       0.15000000
H       -4.59920000      -0.00040000       0.00020000       0.15000000
H        4.59919939      -0.00145115       0.00176165       0.15000000
