22
Properties=species:S:1:pos:R:3:initial_charges:R:1 pbc="F F F"
C       -0.72340000       0.00030000      -0.00010000       0.00000000
C        0.72340000      -0.00020000      -0.00010000       0.00000000
C       -1.42060000      -0.95860000       0.73490000      -0.15000000
C        1.42058815       0.70051985       0.98394212      -0.15000000
C       -1.42100000       0.95880000      -0.73500000      -0.15000000
C        1.42111185      -0.70072028      -0.98411806      -0.15000000
C       -2.81540000      -0.95880000       0.73500000      -0.15000000
C        2.81548815       0.70081231       0.98416959      -0.15000000
C       -2.81590000       0.95860000      -0.73490000      -0.15000000
C        2.81591184      -0.70052776      -0.98389412      -0.15000000
C       -3.51320000      -0.00020000       0.00010000      -0.15000000
C        3.51310000       0.00009216       0.00014447      -0.15000000
H       -0.89230000      -1.71300000       1.31310000       0.15000000
H        0.89237883       1.25194505       1.75827171       0.15000000
H       -0.89310000       1.71340000      -1.31340000       0.15000000
H        0.89312117      -1.25214172      -1.75856047       0.15000000
H       -3.35840000      -1.70540000       1.30720000       0.15000000
H        3.35847893       1.24642684       1.75020208       0.15000000
H       -3.35930000       1.70490000      -1.30700000       0.15000000
H        3.35932107      -1.24593559      -1.75010619       0.15000000
H       -4.59920000      -0.00040000       0.00020000       0.15000000
H        4.59920000       0.00028827       0.00026471       0.15000000
