22
Properties=species:S:1:pos:R:3:initial_charges:R:1 pbc="F F F"
C       -0.72340000       0.00030000      -0.00010000       0.00000000
C        0.72340000      -0.00020000      -0.00010000       0.00000000
C       -1.42060000      -0.95860000       0.73490000      -0.15000000
C        1.42034200      -0.01175714       1.20802119      -0.15000000
C       -1.42100000       0.95880000      -0.73500000      -0.15000000
C        1.42135795       0.01141239      -1.20780107      -0.15000000
C       -2.81540000      -0.95880000       0.73500000      -0.15000000
C        2.81524190      -0.01174631       1.20866047      -0.15000000
C       -2.81590000       0.95860000      -0.73490000      -0.15000000
C        2.81615786       0.01134446      -1.20722341      -0.15000000
C       -3.51320000      -0.00020000       0.00010000      -0.15000000
C        3.51309986      -0.00029146       0.00083619      -0.15000000
H       -0.89230000      -1.71300000       1.31310000       0.15000000
H        0.89193900      -0.02074940       2.15847928       0.15000000
H       -0.89310000       1.71340000      -1.31340000       0.15000000
H        0.89356100       0.02054371      -2.15856276       0.15000000
H       -3.35840000      -1.70540000       1.30720000       0.15000000
H        3.35804104      -0.02063328       2.14920823       0.15000000
H       -3.35930000       1.70490000      -1.30700000       0.15000000
H        3.35975871       0.02043250      -2.14757427       0.15000000
H       -4.59920000      -0.00040000       0.00020000       0.15000000
H        4.59919980      -0.00027516       0.00126936       0.15000000
