45
Properties=species:S:1:pos:R:3:forces:R:3 charge=-1 spin=1 energy=-242.3074188232422 free_energy=-242.3074188232422 stress="-2.5083379817658624e-09 -2.1468668620627795e-08 4.132529873857038e-09 -2.1468668620627795e-08 2.2504933028244523e-08 5.860957230652275e-08 4.132529873857038e-09 5.860957230652275e-08 5.538077019195953e-08" pbc="F F F"
C       -1.01980578      -1.07244352       1.59263817      -0.00835457      -0.00394461      -0.00099432
B       -0.32202678      -1.52394496       3.05154807      -0.00383450      -0.00397377       0.00743813
B        1.16842316      -0.57867646       3.11353031       0.00530431       0.00126116      -0.00951315
B        0.71338409       1.14617716       3.11407745       0.00263069      -0.00122571      -0.01462380
B       -0.29077866      -0.04612446       4.00474315       0.00090395       0.00302695       0.00028357
B       -1.67493114      -0.41178252       3.03572274      -0.00195413      -0.00794303       0.01479641
C       -1.42852916       0.48019711       1.59072279      -0.00388172      -0.00508846      -0.00074258
B        0.64553363      -1.24886600       1.52859094      -0.01859191      -0.02789953       0.03587911
B        1.34833378       0.39761793       1.63600000      -0.05270663      -0.00822134      -0.02332896
B       -0.07863080       1.47121011       1.55214520       0.01898372      -0.01724899      -0.03865661
B       -1.04626605       1.22797144       3.04491465      -0.00238866      -0.00530773       0.00577167
C        1.14160598       0.96469012      -1.58966137      -0.00688544       0.01101962       0.00937480
B        1.62181879       0.24669599      -3.02963901       0.00141516       0.00550795      -0.00357210
B        0.69812140      -1.25468112      -3.08075538       0.00318040      -0.00319536       0.01137865
B       -1.03150992      -0.82284721      -3.11015570       0.00306517      -0.00685561       0.01377483
B        0.15793530       0.18383782      -4.00233073       0.00194250      -0.00349703      -0.00077323
B        0.49901952       1.58763282      -3.05250897       0.00411832       0.00181081      -0.01755323
C       -0.41961789       1.36121121      -1.62058416       0.00055012       0.00738508      -0.00859573
B        1.32796087      -0.69241215      -1.48065359       0.01922110       0.02446780      -0.01851214
B       -0.27500000      -1.43300000      -1.61500000      -0.11499439       0.15076014       0.05961403
B       -1.39692511      -0.01028486      -1.57739017       0.00337481      -0.01616874       0.00556195
B       -1.13843201       0.94046754      -3.07414584       0.00236261      -0.00054460      -0.01154401
Co       0.00000000       0.00000000       0.00000000       0.13547021      -0.06684883      -0.01390522
H       -1.66615882      -1.78501125       1.07297957      -0.00344732       0.00378834      -0.02190171
H       -0.46907016      -2.63870875       3.44714191       0.00453511      -0.00890508      -0.00044355
H        2.12896629      -0.99382290       3.68901229       0.00442457      -0.00195207      -0.01062645
H        1.34481513       1.97450485       3.69771496      -0.00175296       0.00142035      -0.01498371
H       -0.33237977      -0.05452449       5.19438535       0.01123330       0.00178689       0.00178978
H       -2.78569676      -0.70152562       3.33855008      -0.00513279      -0.00756542       0.01021113
H       -2.35066766       0.77297184       1.08155931      -0.00114848      -0.02084676      -0.02185448
H        1.12695052      -2.25747009       1.10375322       0.00273399      -0.00361386       0.00034300
H        2.44568940       0.68677795       1.25769114      -0.00014890       0.00657965      -0.02505840
H       -0.15365369       2.56984099       1.08378399      -0.01079414      -0.00409289       0.00200644
H       -1.72992248       2.11936441       3.44443820      -0.00137416       0.00164913      -0.00207788
H        1.83963204       1.62485811      -1.06801690      -0.01537226       0.01414295       0.02152643
H        2.74055465       0.39435969      -3.41378495       0.00834492      -0.00005959       0.01062018
H        1.13231691      -2.21614717      -3.64052372       0.01038124      -0.00341186       0.01696885
H       -1.84717943      -1.47162891      -3.69249829       0.00516982      -0.00474804       0.01130012
H        0.17803816       0.20882255      -5.19229710       0.00276721      -0.01536211      -0.00186598
H        0.78336173       2.69512430      -3.37202117       0.00459743       0.00495893      -0.01171485
H       -0.72869935       2.29242057      -1.13812412       0.00971452      -0.00145845       0.02095092
H        2.33732317      -1.15117618      -1.03442449      -0.00362283       0.00336275       0.01445331
H       -0.56185501      -2.52096978      -1.21064168      -0.00656860       0.00061088       0.02078205
H       -2.50532942       0.04947692      -1.12865222       0.00078532       0.01220954      -0.01280165
H       -2.03086649       1.60854157      -3.49710586      -0.00425586      -0.00576960      -0.00918217
