45
Properties=species:S:1:pos:R:3:forces:R:3 charge=-1 spin=1 energy=-54314.41232396859 free_energy=-54314.41232396859 stress="0.9295463562011719 0.2273615300655365 -0.7583689093589783 0.2273615300655365 0.6926627159118652 0.08520596474409103 -0.7583689093589783 0.08520596474409103 0.02867192029953003" pbc="F F F"
C       -1.42691044      -0.16378213       1.55400000       0.12045868       0.09303083      -0.12048356
B       -1.17536789      -0.97500799       3.01034200       0.00078066       0.01401813       0.00495628
B        0.57473933      -1.19963321       3.10041509      -0.00617144       0.00370432       0.00590117
B        1.32221366       0.40346551       3.09701849      -0.00144491       0.00167011       0.02134791
B       -0.20403861       0.13819818       3.98652737      -0.00031299       0.01593227       0.00740677
B       -1.52274011       0.75696039       2.96784142       0.00154408       0.00815290      -0.00463574
C       -0.76148119       1.28491105       1.56400000       0.07203581      -0.46725067      -0.17374453
B       -0.26147401      -1.40384478       1.53943190       0.00120458      -0.00194514      -0.01091619
B        1.31066984      -0.57113181       1.59104472      -0.00485654      -0.00574977       0.01986682
B        0.92175718       1.16856092       1.54491722      -0.00065227      -0.00878114       0.01268856
B        0.03281088       1.60415967       3.02155549      -0.00061394       0.01355196       0.00102023
C        1.14300000       0.92400000      -1.55300000      -0.43276212      -0.29070580       0.15905872
B        1.60359262       0.15832978      -2.97647834      -0.00960650       0.00586533      -0.00276568
B        0.63411908      -1.31682487      -3.03755466       0.00512908       0.00283163      -0.00069468
B       -1.07057192      -0.84966972      -3.08058485       0.00423421      -0.00080169      -0.02108889
B        0.13706333       0.12039106      -3.97018075      -0.00635321       0.00613363      -0.00733234
B        0.51083244       1.54716488      -2.97945262      -0.00594131       0.00297908       0.00401996
C       -0.40000000       1.32300000      -1.56800000       0.15462336       0.12092782      -0.04330260
B        1.30331531      -0.76858647      -1.47536482       0.00108961      -0.00072396       0.02053150
B       -0.34846905      -1.43312423      -1.54172595       0.00959667      -0.00361982      -0.01541567
B       -1.42925513      -0.01716441      -1.55804397       0.00939705      -0.00465427      -0.01918048
B       -1.14128788       0.91320546      -3.03917216      -0.00792199       0.00614333      -0.00511776
Co       0.00000000       0.00000000       0.00000000       0.10274432       0.46215063       0.16943939
H       -2.38058192      -0.25912307       1.06354497       0.01639521      -0.00357449      -0.00462287
H       -2.01634138      -1.71077697       3.39952661       0.00333794       0.00959730       0.00282990
H        1.04140876      -2.13477528       3.65779686      -0.00769265       0.00904215       0.01347312
H        2.34025666       0.64593972       3.65254761       0.00134849       0.00776252       0.01498414
H       -0.28242147       0.17479061       5.16888392      -0.00915830       0.00742591       0.00774792
H       -2.55629870       1.24069868       3.27793974       0.00145564      -0.00005383      -0.00035346
H       -1.30590951       2.07976543       1.07952849      -0.00035609      -0.00918727      -0.01797677
H       -0.54323177      -2.47868946       1.13426758       0.02578138      -0.01572014       0.01468822
H        2.34416375      -1.05248784       1.26909694       0.00876601       0.02054066       0.00544523
H        1.57470763       2.05540071       1.09575045      -0.01708241       0.00609479      -0.02022924
H        0.06113884       2.72055798       3.41435313      -0.00325078       0.01193186       0.01050152
H        1.81918293       1.59603614      -1.05481532      -0.00712615      -0.01142525       0.01180918
H        2.71399288       0.30390233      -3.35888218      -0.00849156       0.00034045       0.00202931
H        1.05192922      -2.29315494      -3.56169584       0.00229539       0.00675395      -0.01032834
H       -1.90446845      -1.47795149      -3.64065500      -0.00309703       0.00034597      -0.01376474
H        0.17587039       0.17723844      -5.15370908       0.00405702       0.00641181      -0.00785882
H        0.79941748       2.64605632      -3.30800011       0.00141031      -0.00362454      -0.00284725
H       -0.66273503       2.27175447      -1.12595750       0.00637264      -0.00469201       0.01628811
H        2.29054402      -1.25128954      -1.03961187      -0.00394007      -0.03270920      -0.00132137
H       -0.65111548      -2.52338445      -1.19028704      -0.01730434       0.00195833      -0.01284821
H       -2.53419229       0.08309804      -1.12948200       0.00672163       0.01379066       0.00530424
H       -1.99726488       1.61762152      -3.45502083      -0.00664307       0.00613069      -0.01450887
