45
Properties=species:S:1:pos:R:3:forces:R:3 charge=-1 spin=1 energy=-242.31739807128906 free_energy=-242.31739807128906 stress="-5.0048861055529414e-08 2.6805837549659373e-09 2.9186844940909396e-08 2.6805837549659373e-09 -9.826116098565763e-08 1.1272250333149714e-07 2.9186844940909396e-08 1.1272250333149714e-07 -1.7127473483924405e-07" pbc="F F F"
C       -0.60818331      -1.30115758       1.55400000      -0.03949177      -0.23586541       0.19039519
B        0.19493692      -1.51318566       3.03236086      -0.00164820       0.00016334      -0.00063876
B        1.31119009      -0.13945290       3.09070630      -0.00122210      -0.00069751      -0.00071868
B        0.32649588       1.34709473       3.08103279       0.00100154      -0.00059900       0.00054947
B       -0.24369157      -0.10088737       3.98113812       0.00123098       0.00194641       0.00059014
B       -1.44044827      -0.89404545       3.02277243       0.00052039      -0.00287240      -0.00026001
C       -1.49339876       0.02470124       1.56400000      -0.06204233       0.04305506       0.07605484
B        1.03626805      -0.96340848       1.53450818       0.00297070       0.00081560       0.00268283
B        1.16154416       0.82916605       1.60757668       0.00109795      -0.00349033       0.00075287
B       -0.53201132       1.39884396       1.52845318       0.00361381       0.00175327      -0.00101745
B       -1.37055462       0.85590336       3.02458270       0.00135919       0.00376780       0.00309959
C        1.14300000       0.92400000      -1.55300000       0.13399577       0.01395646      -0.06305383
B        1.62246138       0.18049336      -2.99137375      -0.00009653       0.00183295      -0.00015963
B        0.66772159      -1.30942298      -3.02274106      -0.00013925       0.00158094      -0.00049133
B       -1.05391795      -0.84412323      -3.07553040       0.00213687       0.00035739      -0.00123188
B        0.16264148       0.13088728      -3.96592983      -0.00110268      -0.00085978      -0.00072644
B        0.52358236       1.53834342      -3.03571277       0.00323096       0.00086167      -0.00053450
C       -0.40000000       1.32300000      -1.56800000      -0.13841328       0.23785353      -0.30767050
B        1.32008586      -0.74044031      -1.46199528       0.00027022      -0.00262516      -0.00232911
B       -0.33820671      -1.43358408      -1.56522815       0.00292142      -0.00003856      -0.00293006
B       -1.42517230      -0.01308432      -1.55786719      -0.00022486      -0.00361287      -0.00008276
B       -1.11768619       0.92344513      -3.05141041      -0.00239024      -0.00269675      -0.00432977
Co       0.00000000       0.00000000       0.00000000       0.09928780      -0.07484123       0.11483292
H       -0.99678174      -2.18655012       1.04265381       0.00276414       0.00524282       0.00319712
H        0.40777176      -2.61840465       3.42512385      -0.00166801       0.00171468       0.00261942
H        2.35648242      -0.21870355       3.66193085      -0.00303617       0.00150565       0.00084193
H        0.66146073       2.34015420       3.65147742      -0.00180534       0.00087254      -0.00144094
H       -0.26572410      -0.11298910       5.17118913      -0.00216070       0.00221228       0.00085245
H       -2.39546622      -1.52965452       3.32859527      -0.00275055       0.00008067       0.00028987
H       -2.45717118       0.00526379       1.04849859       0.00242172      -0.00004322       0.00243673
H        1.81434073      -1.77242417       1.12562952      -0.00219797      -0.00361070       0.00688558
H        2.09727978       1.44612575       1.18669708       0.00166779      -0.00413303       0.00231542
H       -0.96306366       2.41449871       1.06775946       0.00097069       0.00016532      -0.00268357
H       -2.30248198       1.48428881       3.42089536      -0.00353473       0.00184351      -0.00145590
H        1.84630636       1.57979619      -1.03245052      -0.00229150      -0.00251046      -0.00179748
H        2.74657922       0.30566566      -3.36739981      -0.00074834       0.00157418      -0.00174004
H        1.08608049      -2.29320527      -3.55374130      -0.00137692       0.00309548      -0.00214595
H       -1.87357892      -1.48994169      -3.65431593       0.00065342       0.00331698      -0.00021357
H        0.19154234       0.12451018      -5.15592375      -0.00082689       0.00295119      -0.00074109
H        0.82432685       2.63920970      -3.36272657       0.00048990       0.00323817       0.00073373
H       -0.69714926       2.26454728      -1.09777368       0.00089300      -0.00077196       0.00051690
H        2.31378781      -1.21135029      -0.99745183       0.00275316       0.00199965      -0.00694541
H       -0.63601507      -2.50445161      -1.12121871       0.00424242      -0.00082512      -0.00519982
H       -2.53983060       0.08816853      -1.13559178      -0.00004977      -0.00122064       0.00023799
H       -1.99297391       1.60974084      -3.47947470      -0.00127600       0.00355588       0.00065358
