45
Properties=species:S:1:pos:R:3:forces:R:3 charge=-1 spin=1 energy=-242.28419494628906 free_energy=-242.28419494628906 stress="-2.626353179380203e-08 -6.716005085394272e-09 -1.115304382182103e-08 -6.716005085394272e-09 4.004270337532034e-08 6.122831308630339e-08 -1.115304382182103e-08 6.122831308630339e-08 7.432192461465092e-08" pbc="F F F"
C        0.62063220      -1.34572114       1.58883802       0.02588183       0.01095790       0.00863278
B        1.29925990      -0.86507587       3.05186650       0.00413901       0.00467385      -0.00873135
B        0.96843354       0.87530894       3.11009057       0.00568993       0.00704283      -0.00206749
B       -0.80160996       1.08559666       3.10643089      -0.00859721      -0.00004488       0.00143846
B       -0.06535918      -0.28738064       4.00246263      -0.00822451       0.00081275      -0.00080559
B       -0.23217813      -1.71329180       3.03753067      -0.00322479       0.00111622       0.00919955
C       -0.96701070      -1.15276011       1.58374523      -0.02898512      -0.01037204      -0.02348113
B        1.41139797       0.13658607       1.55438790       0.00310597       0.00584704       0.03465322
B        0.12665897       1.40002197       1.63600000       0.06885292      -0.08234614      -0.09265807
B       -1.38895408       0.47043950       1.53547855       0.01559916      -0.01952213      -0.02276348
B       -1.52265995      -0.52732991       3.04117279      -0.00458407      -0.00171972       0.00709453
C        1.13165763       0.97246252      -1.58315658       0.01210219      -0.00965545       0.00532547
B        1.62361705       0.25345223      -3.02307946       0.00196072      -0.00539549       0.00990632
B        0.70275175      -1.25607221      -3.07270783       0.00667018      -0.00799586       0.00755580
B       -1.02653889      -0.82774368      -3.10577705      -0.00350511      -0.00186956      -0.00267866
B        0.16128934       0.18198008      -4.00054066      -0.00406781      -0.00015067       0.00109643
B        0.49802631       1.59127609      -3.05599404      -0.00753600      -0.00047874      -0.01121552
C       -0.42227602       1.36013908      -1.61841438      -0.02726054       0.01534003       0.02132320
B        1.33907376      -0.68826779      -1.50087560       0.00233305      -0.00461003      -0.03889574
B       -0.27500000      -1.43300000      -1.61500000      -0.04049283       0.16346148       0.07966311
B       -1.39488471      -0.01415026      -1.57313083       0.01413679       0.01225543       0.02122933
B       -1.13388077       0.94160169      -3.07871444      -0.00197935      -0.00292793      -0.01237160
Co       0.00000000       0.00000000       0.00000000       0.00368250      -0.08620248       0.01023762
H        1.03960757      -2.20637851       1.05881248       0.00001167       0.00974303       0.02310674
H        2.28321917      -1.40913025       3.44928252      -0.00510596      -0.00329325      -0.00014348
H        1.70800737       1.61769474       3.68271226      -0.00733083       0.00048831       0.00097318
H       -1.34654818       1.97798172       3.68350171      -0.00202447      -0.00482574      -0.00628881
H       -0.07094865      -0.31827832       5.19316303      -0.00353082       0.00320040      -0.00675046
H       -0.36968252      -2.85205816       3.34468936      -0.00409036      -0.00717184      -0.00482303
H       -1.57568559      -1.89249550       1.05590354       0.01119059      -0.00737448      -0.00339672
H        2.52734378       0.20749197       1.13550734       0.01802847       0.00605158      -0.04085274
H        0.26908414       2.51737731       1.23132616      -0.00724918       0.01563463      -0.00753307
H       -2.44077926       0.79790715       1.07447451      -0.01505674      -0.00375421       0.01780463
H       -2.60672640      -0.82978743       3.43521770      -0.00388710      -0.00276538      -0.00670557
H        1.81989667       1.63775990      -1.05275104      -0.00858302      -0.00540894      -0.02043131
H        2.74394786       0.40061842      -3.40371754      -0.00031841       0.01232191       0.00858687
H        1.14113014      -2.21897219      -3.62645083       0.00160732       0.00317889       0.00494555
H       -1.84440800      -1.47825044      -3.68380015       0.00815149      -0.00026362       0.00235171
H        0.18202663       0.19356864      -5.19131662       0.00441589      -0.00568155       0.00643024
H        0.78433829       2.69740721      -3.37940121      -0.00685915       0.00729495       0.00495088
H       -0.73907738       2.27955022      -1.11685202       0.00318325       0.00310943      -0.00482887
H        2.34900884      -1.13846824      -1.05106283       0.01208144      -0.00274890       0.04687376
H       -0.55539916      -2.51327306      -1.18408842      -0.00906842      -0.00829111       0.01050548
H       -2.50516622       0.05430177      -1.13738560      -0.01046835       0.00554726      -0.02397842
H       -2.03141641       1.60317675      -3.50165690      -0.00079405      -0.00320782      -0.00248402
