45
Properties=species:S:1:pos:R:3:forces:R:3 charge=-1 spin=1 energy=-54314.36513425606 free_energy=-54314.36513425606 stress="1.2901691198349 -0.09877330809831619 0.2371407300233841 -0.09877330809831619 0.9587918519973755 -0.639693558216095 0.2371407300233841 -0.639693558216095 0.6558671593666077" pbc="F F F"
C        1.30646102       0.59670563       1.55400000      -0.10415169      -0.19184685       0.04126538
B        0.82697763       1.29490067       3.02090654       0.00978446      -0.00657751       0.00741563
B       -0.91264962       0.97986654       3.11007706       0.00987158      -0.00019809      -0.01199836
B       -1.14032445      -0.77649589       3.08509248      -0.01153080       0.02205914       0.01207261
B        0.23422516      -0.06889752       3.98433701       0.00453247       0.00702792      -0.00270703
B        1.67878499      -0.25237384       2.96764991       0.00486572      -0.00750884      -0.01209121
C        1.12127100      -0.98671240       1.56400000      -0.45073634       0.44029331      -0.32263732
B       -0.17430858       1.42571524       1.56290281       0.02526323       0.01679088      -0.02005828
B       -1.42927808       0.15901446       1.59220881      -0.02091614       0.03183458      -0.00841599
B       -0.53280566      -1.38457089       1.51467297      -0.01036880       0.01723721       0.01456716
B        0.45033083      -1.52849398       3.00534452      -0.00689686       0.00180716       0.00583340
C        1.14300000       0.92400000      -1.55300000      -0.45470756      -0.17066592       0.09970929
B        1.62419455       0.17887903      -2.98978143      -0.00471381       0.01542356      -0.01290005
B        0.66778557      -1.30782182      -3.06307080      -0.00123120       0.01532209      -0.00259210
B       -1.04384276      -0.85331747      -3.09097515       0.00443788      -0.00868861      -0.00877143
B        0.15426906       0.13345726      -3.97825590       0.00093384       0.00624494       0.00001959
B        0.51480672       1.55482042      -2.97761316      -0.00992398       0.00941513       0.01014668
C       -0.40000000       1.32300000      -1.56800000       0.08252791      -0.04648158       0.18994914
B        1.32149445      -0.75704413      -1.51228300       0.02658947       0.02094596       0.01748300
B       -0.32377741      -1.44302642      -1.56882015       0.02389504      -0.03351219      -0.00063496
B       -1.42039887      -0.03644044      -1.54503893       0.01407722      -0.01111161      -0.00547914
B       -1.13059472       0.90522340      -3.03474695      -0.00758806      -0.00810596       0.00132069
Co       0.00000000       0.00000000       0.00000000       0.82201225      -0.17683791       0.02786030
H        2.19747011       0.97411799       1.07720761      -0.00537796      -0.01283972      -0.00148073
H        1.41367607       2.24363557       3.41841898       0.00473432      -0.00406752      -0.00342345
H       -1.63782315       1.72599705       3.67825293       0.01421438      -0.00513412      -0.00533240
H       -2.02965381      -1.32355534       3.64396204      -0.01000506      -0.00039275       0.00933991
H        0.32260531      -0.09214060       5.16670746       0.00128249       0.00358863      -0.00093814
H        2.80977807      -0.40068356       3.27790613       0.00108407       0.00066450       0.00486469
H        1.86293000      -1.57783225       1.05684644       0.00334565       0.00812384       0.00413790
H       -0.23088812       2.53001164       1.11776299       0.00159417      -0.01050001       0.00868082
H       -2.55749518       0.30733107       1.25458287       0.02188796      -0.00111404       0.01187549
H       -0.89067579      -2.42856780       1.08973401       0.00961917       0.01909469       0.01510899
H        0.75644058      -2.60344209       3.39288987       0.00038099      -0.00286452       0.01105439
H        1.81371188       1.61113441      -1.06289246      -0.00773328      -0.00328140       0.00012891
H        2.73363266       0.34656551      -3.36809262      -0.00235343       0.01019752      -0.00098812
H        1.09537414      -2.27697569      -3.59513450       0.00087788       0.01762510      -0.00371509
H       -1.87319219      -1.47876378      -3.65966722      -0.00394602      -0.00494513      -0.01377111
H        0.18915061       0.20313035      -5.16142384       0.00186907       0.00810755      -0.00181613
H        0.79714491       2.65676583      -3.29855136      -0.00077073       0.00434466       0.00069620
H       -0.67467888       2.25448033      -1.10242180       0.00682000       0.00052054      -0.00050684
H        2.30772914      -1.22733709      -1.03778439      -0.00744408       0.00046237      -0.01209231
H       -0.61313113      -2.53817962      -1.21602553       0.00734915       0.02860170      -0.02063269
H       -2.52916749       0.04690341      -1.14080885       0.01600017      -0.00082267      -0.01465021
H       -1.99332139       1.59992701      -3.45026091       0.00054550       0.00176388      -0.00589681
