45
Properties=species:S:1:pos:R:3:forces:R:3 charge=-1 spin=1 energy=-242.2230682373047 free_energy=-242.2230682373047 stress="-6.838425825606009e-09 1.33098190246983e-08 -2.2888960060640784e-08 1.33098190246983e-08 4.128907704625817e-08 5.595143903747157e-09 -2.2888960060640784e-08 5.595143903747157e-09 6.562628129813675e-08" pbc="F F F"
C        0.28683295       1.44790266       1.58373523       0.01650035      -0.00731771      -0.00075966
B       -0.53787054       1.46485908       3.03627268      -0.00547750      -0.03324250       0.00404062
B       -1.29085028      -0.12994181       3.11990994       0.00544572      -0.01373563       0.00571083
B        0.01538238      -1.34095514       3.12004112      -0.00535116       0.00950462       0.00558823
B        0.23748923       0.20763813       4.00085076      -0.02923290      -0.02657369      -0.02050736
B        1.20681593       1.24550131       3.01262783      -0.02379243      -0.02578673       0.01714522
C        1.47254866       0.34152757       1.58484333      -0.02384424       0.03873077       0.00075305
B       -1.22882258       0.71350519       1.56260951       0.03814486      -0.00116628      -0.02708508
B       -0.92538152      -1.05819329       1.63600000       0.02265361       0.11384270      -0.16469884
B        0.83708550      -1.20617056       1.53192507       0.00876155       0.03109242       0.00232978
B        1.54754478      -0.47009210       3.04507265      -0.03125981      -0.02246152      -0.01365964
C        1.15696657       0.95050389      -1.58328626      -0.03704672       0.03294143       0.00195470
B        1.62867386       0.24885046      -3.02270796      -0.02732061      -0.03216545       0.00264968
B        0.69824171      -1.24752696      -3.09318371      -0.00862704      -0.00353965       0.00022902
B       -1.02686491      -0.80767480      -3.11237636       0.01469207      -0.00780940      -0.01401699
B        0.15986480       0.20990442      -3.99664606      -0.01508176      -0.04172683       0.01480878
B        0.50532490       1.59775383      -3.02352071      -0.01307584      -0.03293357      -0.02441934
C       -0.41746622       1.35804378      -1.60469278       0.00676256      -0.00602615      -0.00301221
B        1.35118494      -0.71433166      -1.53179911      -0.01474270       0.03437239       0.02317798
B       -0.27500000      -1.43300000      -1.61500000      -0.03473122       0.18460590       0.13618365
B       -1.38479188      -0.02226509      -1.55439727       0.02326730       0.01468590       0.01894695
B       -1.12922122       0.95543171      -3.06135794       0.00166873      -0.03205016       0.00436660
Co       0.00000000       0.00000000       0.00000000       0.08824649      -0.33296603       0.03385285
H        0.45824139       2.40116493       1.07402736       0.00836142      -0.00560862       0.00482494
H       -1.00380674       2.48568418       3.43481774      -0.00807741       0.03130922       0.01436825
H       -2.31437500      -0.29979996       3.70936959      -0.01668802       0.00233842       0.00189444
H       -0.07122784      -2.37618815       3.70771940       0.00370168      -0.01686345      -0.00380726
H        0.26959606       0.25089874       5.18887286      -0.00459025      -0.00904285       0.01332465
H        1.98823073       2.08549301       3.31523594       0.01732115       0.02172408      -0.00611983
H        2.40637814       0.56667809       1.06234926      -0.01239064       0.03301363       0.00714442
H       -2.17322053       1.28101783       1.09944231      -0.01101477       0.01649808      -0.00626779
H       -1.69763861      -1.89781119       1.27436509       0.01038297       0.01957875      -0.00386055
H        1.49879059      -2.10326633       1.10629054       0.01627489      -0.01419112      -0.02476308
H        2.59530859      -0.86886778       3.44574694       0.03553689      -0.00819723      -0.00127643
H        1.86351760       1.61183170      -1.07329259      -0.01718321       0.01766400      -0.00108959
H        2.74108011       0.40008204      -3.41973288       0.03251055       0.01290627      -0.00255647
H        1.11794612      -2.20300240      -3.67161975       0.01157049      -0.01608849       0.00069340
H       -1.84111803      -1.45169541      -3.70081213      -0.01999956      -0.00943820      -0.00045121
H        0.18486286       0.24760039      -5.18488143      -0.00288441      -0.01140141      -0.01625668
H        0.79627879       2.70360657      -3.33882192       0.00235575       0.03315672       0.00100482
H       -0.73551144       2.27834628      -1.10563550       0.02531868       0.00292005      -0.00547729
H        2.33491049      -1.19010832      -1.05142196       0.01391225       0.00631478       0.01801536
H       -0.56003910      -2.53059113      -1.23560874      -0.00126408       0.02104254       0.00675623
H       -2.50189739       0.04205259      -1.13458171      -0.01635626       0.01245710       0.01354063
H       -2.02642686       1.61898729      -3.47673329      -0.02335714       0.01963304      -0.01322024
