45
Properties=species:S:1:pos:R:3:forces:R:3 charge=-1 spin=1 energy=-242.28846740722656 free_energy=-242.28846740722656 stress="-8.550490804282163e-08 -1.1666332788706768e-08 5.791195079041245e-08 -1.1666332788706768e-08 -7.50998410126158e-08 8.063084067089221e-08 5.791195079041245e-08 8.063084067089221e-08 -1.7023150178374635e-07" pbc="F F F"
C       -1.32261265      -0.55999446       1.55400000      -0.24210769      -0.13849597       0.18621099
B       -0.86982381      -1.26040954       3.02789075      -0.00041576       0.00144877       0.00127360
B        0.87443303      -0.98845134       3.08944829      -0.00149046       0.00098705       0.00009382
B        1.14100826       0.77770156       3.08207487       0.00012667      -0.00053397      -0.00165287
B       -0.25103147       0.08145887       3.97910511       0.00054473       0.00061805      -0.00072105
B       -1.66919811       0.29601872       3.01876520       0.00018559       0.00045913       0.00020587
C       -1.09328320       1.01763541       1.56400000       0.00802183       0.05052572       0.11505535
B        0.12279997      -1.40944630       1.51811371      -0.00007009       0.00111803      -0.00180928
B        1.41662578      -0.16681640       1.60653949      -0.00226969      -0.00133566      -0.00032690
B        0.54189159       1.39491467       1.53357150      -0.00004958      -0.00256187      -0.00034571
B       -0.44412891       1.55148248       3.02109414       0.00187275       0.00081060      -0.00063175
C        1.14300000       0.92400000      -1.55300000       0.13205369       0.03748405      -0.08874047
B        1.62348265       0.17845347      -2.98846406      -0.00034526       0.00060290      -0.00163810
B        0.67158125      -1.30903862      -3.01875291       0.00035362       0.00196077      -0.00033782
B       -1.05326285      -0.84652111      -3.06973135       0.00152262       0.00022790       0.00066110
B        0.16203288       0.12651760      -3.96190473       0.00054500       0.00021350       0.00064413
B        0.52158706       1.53560806      -3.03301152      -0.00014697       0.00016064      -0.00070481
C       -0.40000000       1.32300000      -1.56800000      -0.14184847       0.20859119      -0.31985193
B        1.32129589      -0.73834872      -1.44694187      -0.00168878       0.00028353       0.00132751
B       -0.33384267      -1.43504971      -1.55572858       0.00207629       0.00159961       0.00034015
B       -1.42619734      -0.01501830      -1.55644302       0.00190327      -0.00079446      -0.00059125
B       -1.12169112       0.91898117      -3.04443201      -0.00026331      -0.00116726      -0.00006840
Co       0.00000000       0.00000000       0.00000000       0.23414174      -0.18153770       0.11068539
H       -2.20701622      -0.95313977       1.04311631      -0.00036839      -0.00078566       0.00281584
H       -1.45080834      -2.22531169       3.41821993      -0.00069139       0.00145002       0.00162679
H        1.59782741      -1.74784967       3.66011552      -0.00052742       0.00093104      -0.00020975
H        2.05324182       1.28778803       3.65807875       0.00093871       0.00047202      -0.00289402
H       -0.27825376       0.08771991       5.16886689       0.00040729       0.00224398      -0.00034410
H       -2.80437370       0.46303820       3.32390816       0.00063631       0.00148801      -0.00027592
H       -1.82662942       1.65055065       1.05512088      -0.00663995       0.00658038      -0.00061586
H        0.15518927      -2.52688193       1.09471879       0.00066726      -0.00223564       0.00074188
H        2.53259444      -0.34340797       1.21605004       0.00096083      -0.00219967      -0.00002452
H        0.90914310       2.42340796       1.04457207       0.00156794      -0.00052973       0.00018770
H       -0.71816400       2.64020291       3.42152637       0.00092656       0.00155157      -0.00198260
H        1.84453287       1.58583744      -1.03746887       0.00685151       0.00431865      -0.00074741
H        2.74729970       0.30255845      -3.36555772       0.00055835       0.00153888      -0.00045800
H        1.08898621      -2.29361411      -3.54963225       0.00077066       0.00134848       0.00031532
H       -1.87093295      -1.49316203      -3.65071814       0.00073859      -0.00023995       0.00126971
H        0.18830938       0.12174938      -5.15179254       0.00015736       0.00103205       0.00048098
H        0.82126351       2.63617551      -3.36228045      -0.00062573       0.00015312       0.00085008
H       -0.69610799       2.26885184      -1.10333901      -0.00162564       0.00906036       0.00122876
H        2.31378409      -1.20355903      -0.97239558       0.00189636      -0.00272346      -0.00069511
H       -0.62191011      -2.51686332      -1.13678722       0.00128069      -0.00123380      -0.00015387
H       -2.53138135       0.07536695      -1.10481728      -0.00013570      -0.00274386      -0.00096759
H       -1.99583683       1.60541851      -3.47520683      -0.00039500      -0.00014153       0.00077438
