45
Properties=species:S:1:pos:R:3:forces:R:3 charge=-1 spin=1 energy=-54314.4283495118 free_energy=-54314.4283495118 stress="-0.14409027993679047 0.2065098136663437 -0.04105834290385246 0.2065098136663437 0.08357954770326614 0.1405898779630661 -0.04105834290385246 0.1405898779630661 -0.6109796762466431" pbc="F F F"
C        1.33465679       0.59201558       1.49843404       0.01178632      -0.03061960       0.02555123
B        0.92872319       1.29744249       2.98258536       0.00093079      -0.01239988       0.00774468
B       -0.81032680       1.01747683       3.13306567       0.00154792       0.00168977       0.00795500
B       -1.08309671      -0.73250956       3.11690109       0.00211185      -0.00157209       0.00245568
B        0.34538915      -0.06180735       3.95953032      -0.00857642      -0.01090288       0.00606436
B        1.73734073      -0.26997844       2.88322325      -0.00333065      -0.01819076      -0.00242175
C        1.08838349      -0.96821298       1.47865417      -0.00549969      -0.02408322       0.02422974
B       -0.11793222       1.45083279       1.55774867      -0.01040088       0.00597350       0.01493016
B       -1.38930636       0.21431714       1.63600000      -0.27330413       0.09718882      -0.11873112
B       -0.56283285      -1.34910621       1.52223381       0.01703152      -0.01695605      -0.00956128
B        0.48620884      -1.51935023       2.95951393       0.00602998      -0.00104533      -0.01367254
C        1.04784226       0.99440989      -1.49773233      -0.02131292       0.02533085      -0.02725370
B        1.58062123       0.33788368      -2.96374377      -0.01706556       0.00774462      -0.00601512
B        0.70165018      -1.19082684      -3.10141612      -0.00131495       0.00170106      -0.01035780
B       -1.03050569      -0.82199485      -3.11100593      -0.00538767       0.00122727      -0.00472274
B        0.11661767       0.26090194      -3.95687328      -0.02166054      -0.00217675      -0.00695473
B        0.40385751       1.65400975      -2.90081241      -0.01884265       0.00275309       0.00606888
C       -0.49892245       1.32295023      -1.49853189      -0.01956245       0.00443680      -0.01880620
B        1.33055173      -0.67167641      -1.52934834       0.00064048      -0.01235239      -0.01685929
B       -0.27500000      -1.43300000      -1.61500000       0.01928645      -0.01533333       0.13280636
B       -1.44143159      -0.09177439      -1.53045800      -0.00803538       0.01795200       0.00776359
B       -1.20805281       0.92734507      -2.98249211      -0.00499528       0.00405512       0.01072906
Co       0.00000000       0.00000000       0.00000000       0.45114669      -0.02998215       0.00165190
H        2.21467752       0.94589292       0.98586860      -0.00023972      -0.01384204       0.01311388
H        1.55138394       2.23447858       3.35229809       0.01563225      -0.01942191       0.00730380
H       -1.50163950       1.77453086       3.72611236       0.00985903       0.02061442       0.00739969
H       -1.96367270      -1.26233599       3.70553480      -0.01012071       0.01963025       0.01536486
H        0.48393448      -0.09746572       5.13615527      -0.00374848       0.00517250       0.01257405
H        2.87967696      -0.44981848       3.12803743      -0.01095435      -0.02761067       0.01879935
H        1.81103995      -1.57707368       0.96406629      -0.01217697       0.00171056       0.00445168
H       -0.17703426       2.55321761       1.10832431       0.01998272      -0.01214634       0.03066190
H       -2.52230897       0.39895679       1.32639252       0.03600597      -0.00556763       0.01215675
H       -0.95850790      -2.37524940       1.08938419      -0.00381126      -0.01591357       0.01394338
H        0.80249008      -2.60268819       3.31670994      -0.02969436       0.00984800       0.01846315
H        1.68821235       1.69691851      -0.98934858      -0.01030753       0.00861833      -0.01254879
H        2.68518327       0.57780246      -3.31800412      -0.02380034       0.02424239      -0.01683002
H        1.17540617      -2.11410238      -3.67242004       0.01572207       0.00357317      -0.01573886
H       -1.83058634      -1.46198603      -3.70485382       0.00456576      -0.01636978      -0.01178450
H        0.15021796       0.38351222      -5.13526047      -0.01132039      -0.00189359      -0.01377225
H        0.64858494       2.78052924      -3.16293638      -0.03847406      -0.00174508      -0.01728516
H       -0.81246641       2.22537457      -1.00218712      -0.01378216      -0.00711968      -0.00742671
H        2.33786740      -1.10780562      -1.06551129      -0.00883316       0.02092803      -0.03594013
H       -0.50767977      -2.55078205      -1.28691905       0.00823234       0.04021819      -0.01439096
H       -2.54665874      -0.08678450      -1.10976443      -0.01272212      -0.00024835      -0.01214260
H       -2.10134296       1.60075325      -3.36865395      -0.01123716      -0.02711589      -0.00896684
