45
Properties=species:S:1:pos:R:3:forces:R:3 charge=-1 spin=1 energy=-242.30398559570312 free_energy=-242.30398559570312 stress="-2.3630469803137544e-10 6.329356594392266e-09 -3.232796785823666e-08 6.329356594392266e-09 3.120324265637464e-08 3.0789315985657595e-08 -3.232796785823666e-08 3.0789315985657595e-08 1.719275211087279e-08" pbc="F F F"
C        1.08292673       1.00878092       1.59542385       0.01730707       0.01038915       0.01560184
B        0.41353643       1.50182430       3.05041688      -0.01412340      -0.01128626       0.00870143
B       -1.13411138       0.64890411       3.11259795       0.00759421      -0.00351004      -0.00104392
B       -0.77942864      -1.09977495       3.10551946      -0.00171734      -0.00075062      -0.00101148
B        0.29211012       0.01960217       4.00287536      -0.00496508      -0.00108520       0.00033101
B        1.69950200       0.30428096       3.03806730      -0.00642400       0.00055304       0.02537134
C        1.40202746      -0.56107352       1.58810216      -0.01045865      -0.03450207       0.02046368
B       -0.56563840       1.30309162       1.55734192      -0.01364551      -0.01176810       0.01546173
B       -1.37063979      -0.31217074       1.63600000       0.08422816       0.09928693      -0.16927850
B       -0.01592547      -1.45122172       1.50549330       0.01150467       0.00310189       0.01002336
B        0.97549367      -1.28680669       3.04271645      -0.00500173      -0.00260727      -0.00033950
C        1.12874652       0.97241807      -1.58759428      -0.00583278       0.02995652      -0.01256964
B        1.62320728       0.25044504      -3.01780492      -0.00984735      -0.00530835      -0.01220546
B        0.70527242      -1.25748848      -3.07347927      -0.00386064       0.00659454      -0.00238361
B       -1.02493107      -0.82472098      -3.10587791      -0.00165637      -0.00101146       0.00214059
B        0.15767547       0.17983045      -4.00013721      -0.00539261      -0.00065269      -0.00198643
B        0.49062541       1.59039019      -3.05620022      -0.00862872       0.00026849      -0.01038355
C       -0.42539801       1.36530746      -1.61964504      -0.02776435      -0.01269868      -0.02450444
B        1.34553894      -0.68554410      -1.51573216      -0.02345294      -0.00552650      -0.02262489
B       -0.27500000      -1.43300000      -1.61500000      -0.02632073       0.19831997       0.13580556
B       -1.38008481      -0.01385489      -1.53837047       0.00093028       0.00831324      -0.00178270
B       -1.13531230       0.94028653      -3.08208788      -0.00492381      -0.00208648       0.00802209
Co       0.00000000       0.00000000       0.00000000      -0.00033491      -0.23524575       0.03025060
H        1.78486899       1.67884544       1.09265715       0.02237222       0.02424845       0.01523966
H        0.63424447       2.60193322       3.45357003      -0.00268950      -0.00397915       0.00286984
H       -2.06862641       1.11817620       3.68792511      -0.00191681      -0.00387040       0.00414903
H       -1.45918850      -1.89838413       3.67639021       0.00262020      -0.01189239      -0.00564609
H        0.32419078       0.02684609       5.19238335      -0.00033684      -0.00548426       0.00342120
H        2.82463811       0.52835340       3.34618846      -0.00938570       0.00089041       0.00294018
H        2.29313075      -0.91092558       1.06238081       0.01217245       0.00720464       0.02641530
H       -0.99063290       2.33007973       1.11491910      -0.00677462       0.00921890      -0.02079549
H       -2.47330317      -0.52873253       1.22921677      -0.01311303       0.00521016      -0.00705877
H        0.00513819      -2.56705608       1.07889060      -0.00321075       0.00282356      -0.01192610
H        1.59567089      -2.22783811       3.43231673      -0.00645584       0.00558069      -0.00662173
H        1.81989648       1.65006907      -1.07995961       0.02358618       0.02425541      -0.01945800
H        2.74080873       0.40870610      -3.40049029       0.00106472       0.00613972      -0.00343899
H        1.14216478      -2.22007273      -3.62711195       0.00236185      -0.00333709      -0.00559074
H       -1.84369249      -1.47740109      -3.67980809      -0.00606743       0.00025607       0.00417377
H        0.18608602       0.18975147      -5.18972039       0.00053196      -0.00190018      -0.00301112
H        0.77741241       2.69670344      -3.37994367      -0.00796793      -0.00894877      -0.00343820
H       -0.74337480       2.28523545      -1.12070327       0.00251821      -0.00803241      -0.01636472
H        2.34108298      -1.14271998      -1.04061944       0.03229874      -0.01445665      -0.00181056
H       -0.56011248      -2.50919361      -1.18596783       0.00174827      -0.02830708       0.00405703
H       -2.50509467       0.06042390      -1.13914379       0.00659412      -0.01188382       0.02442389
H       -2.03551408       1.59797214      -3.50561098       0.00283641      -0.01248069       0.00541179
