45
Properties=species:S:1:pos:R:3:forces:R:3 charge=-1 spin=1 energy=-54314.50033475655 free_energy=-54314.50033475655 stress="0.7433487772941589 0.49649304151535034 -0.5698365569114685 0.49649304151535034 1.0939407348632812 -1.3131163120269775 -0.5698365569114685 -1.3131163120269775 1.4704440832138062" pbc="F F F"
C        0.83094272      -1.17150851       1.55400000      -0.19361874       0.17496149      -0.13314107
B        1.41875216      -0.56104651       3.01970576       0.00081183      -0.00281730       0.00457891
B        0.77237260       1.08559747       3.11690896       0.01704556      -0.00736503      -0.00355366
B       -0.99400998       0.97101848       3.10046529       0.01222287      -0.00191019       0.00824569
B       -0.03141583      -0.24669557       3.98818767      -0.00329602      -0.00023428       0.00071128
B        0.06629164      -1.69801203       2.96360741      -0.00170290       0.00243015       0.00561525
C       -0.75912977      -1.28630167       1.56400000       0.21910524       0.45349908      -0.41909558
B        1.35362217       0.44671529       1.56167968      -0.00094518      -0.02649550      -0.00407575
B       -0.13048999       1.42694967       1.60710471       0.00867431       0.00815286       0.00641381
B       -1.47141504       0.25551080       1.53743164      -0.01269403       0.01008419       0.01431391
B       -1.42474405      -0.73867158       3.01221778       0.00771427      -0.00815040      -0.00160271
C        1.14300000       0.92400000      -1.55300000      -0.41196361      -0.28705791       0.35493413
B        1.61532520       0.16056523      -2.98049725       0.00385622       0.00474847      -0.00302196
B        0.65026954      -1.32143649      -3.05475361       0.02187220       0.00562942       0.00312995
B       -1.05813289      -0.85723184      -3.09641847       0.01689870      -0.00079455      -0.01301871
B        0.14913208       0.12143461      -3.97613831       0.00262759       0.00483985      -0.00282438
B        0.51448766       1.54657733      -2.97625586       0.00277030       0.00013075      -0.00476260
C       -0.40000000       1.32300000      -1.56800000      -0.01074444      -0.00942791       0.17670418
B        1.30811509      -0.76486147      -1.49381195       0.00703425       0.02832110       0.00059921
B       -0.33895821      -1.43480741      -1.56986268       0.01163170      -0.00859270      -0.00442138
B       -1.42875261      -0.02721942      -1.56750120      -0.01186676      -0.01147676      -0.01493285
B       -1.13392765       0.90672612      -3.04220341       0.00974192       0.00813868       0.00042920
Co       0.00000000       0.00000000       0.00000000       0.17575844      -0.34794107       0.05636745
H        1.37234499      -1.95590220       1.05251153      -0.00258156       0.00102702       0.00123519
H        2.46192532      -0.94897493       3.42160857       0.00266356      -0.00410815      -0.00861907
H        1.36833537       1.93619245       3.68758392       0.00956962      -0.00183784      -0.00247497
H       -1.70409159       1.73557433       3.66312134       0.01031121       0.00335103       0.00075507
H       -0.03427928      -0.34296869       5.17029529       0.01080122       0.00114954      -0.00100091
H        0.13862478      -2.83558195       3.27480379       0.00298639       0.00385979      -0.00162542
H       -1.19336885      -2.12384955       1.04491247       0.00095009       0.00127191       0.00447768
H        2.41958243       0.72820456       1.11614419       0.01247070      -0.00186709       0.00616870
H       -0.20585720       2.55827843       1.23826762       0.00586654       0.00131115       0.00454461
H       -2.55985215       0.41064825       1.10175654       0.00128857      -0.00441091      -0.00385080
H       -2.41722767      -1.25288166       3.40088430       0.00483430       0.00900533       0.00765619
H        1.81389827       1.59215968      -1.04047184      -0.00357089       0.00042163       0.00041169
H        2.72327586       0.31633842      -3.36555122       0.00349825       0.00858747       0.00910146
H        1.07594222      -2.29184238      -3.58524392       0.01351582       0.00390215      -0.00207139
H       -1.89329506      -1.47778419      -3.66432360       0.01154423      -0.00452409      -0.00660764
H        0.18925692       0.18927260      -5.15934499       0.01351441       0.00226221      -0.00177381
H        0.80328311       2.64368912      -3.30574616       0.00334426      -0.00029198       0.00361561
H       -0.67048019       2.25341458      -1.09634014      -0.00068005       0.00026673      -0.00362149
H        2.27784790      -1.24978387      -1.00605101       0.01498543       0.00077967      -0.01022363
H       -0.64014050      -2.51874142      -1.17499108       0.00732821      -0.00530185      -0.01163982
H       -2.53523013       0.05614059      -1.15936665       0.00379458       0.00272677      -0.00146601
H       -1.98911635       1.60866497      -3.46155628       0.00263144      -0.00625291      -0.01058345
