45
Properties=species:S:1:pos:R:3:forces:R:3 charge=-1 spin=1 energy=-54314.62258435982 free_energy=-54314.62258435982 stress="-0.048614803701639175 0.1290791779756546 0.08978226780891418 0.1290791779756546 0.1811399608850479 0.15582863986492157 0.08978226780891418 0.15582863986492157 -0.34413036704063416" pbc="F F F"
C       -0.86771600      -1.19668605       1.43734824      -0.01590112       0.01607946      -0.01362340
B       -0.16477082      -1.63655698       2.91232955      -0.00185496       0.00441716      -0.01169110
B        1.21106330      -0.54088741       3.09865831      -0.00085844       0.00261209       0.00830956
B        0.58220308       1.11334134       3.14010239       0.00113407       0.00470173       0.00525980
B       -0.32749692      -0.20104967       3.93722186      -0.00838783       0.00183205       0.00932648
B       -1.64452007      -0.67821156       2.84490188      -0.00101187       0.00035580       0.00727292
C       -1.43308568       0.28480147       1.48064643       0.00098146       0.02015933       0.01947658
B        0.83138454      -1.22232870       1.49363454      -0.01614220      -0.02035670      -0.00581478
B        1.32070651       0.48149590       1.63600000      -0.01327551      -0.02059043      -0.05133065
B       -0.18322048       1.42529074       1.56877080       0.01222905      -0.00678879       0.01819331
B       -1.17521985       1.02399635       2.98087381      -0.00297951       0.01509495       0.01239545
C        1.08410146       0.98075111      -1.44551213      -0.01880082       0.01066910       0.01180830
B        1.63938611       0.30803488      -2.89530958      -0.00240780      -0.00103474       0.01211398
B        0.74937336      -1.21152340      -3.06162076      -0.00178298       0.00049398      -0.00780498
B       -0.97549065      -0.82046156      -3.14241346      -0.00369053      -0.00197014      -0.00391017
B        0.21316385       0.24459011      -3.94401273      -0.00128987       0.00754354      -0.00920434
B        0.48366980       1.64152073      -2.88059267       0.00155589       0.00038002      -0.01024543
C       -0.46231251       1.33289316      -1.52382370      -0.01698812      -0.00728477      -0.01936681
B        1.34235190      -0.70187580      -1.45664475       0.01763772       0.01675696       0.00661105
B       -0.27500000      -1.43300000      -1.61500000       0.08347466       0.16507073       0.09954167
B       -1.41398229      -0.06882821      -1.59452926       0.00809909      -0.01039093      -0.01719885
B       -1.13363414       0.93550241      -3.02631199      -0.01441790       0.00009119      -0.01150228
Co       0.00000000       0.00000000       0.00000000      -0.03421483      -0.19001581      -0.05390203
H       -1.43882917      -1.92522767       0.88645526      -0.01066631       0.00515972       0.00307554
H       -0.23392191      -2.76703602       3.25493011      -0.00994342       0.01286328       0.00355159
H        2.18097418      -0.88256628       3.68587626       0.00468512      -0.01275146       0.00288822
H        1.08689126       1.99123976       3.75592842       0.00986065      -0.00604871       0.00826062
H       -0.46158834      -0.28061416       5.11204833       0.00232068       0.00103444       0.01727230
H       -2.72235571      -1.09601555       3.09060164      -0.00429616       0.01613052       0.00701655
H       -2.36076805       0.47387739       0.96751774      -0.00367930      -0.01135599      -0.01167065
H        1.42817123      -2.14877006       1.06337238       0.00804609      -0.00965729      -0.01811309
H        2.38664719       0.89816576       1.31203433       0.01813140       0.00426128      -0.00813107
H       -0.34659195       2.52429475       1.14462477       0.00270732      -0.00288269      -0.00516233
H       -1.98241633       1.79856526       3.36844277       0.00591096       0.01048600       0.01536873
H        1.71834394       1.66249118      -0.90349098      -0.00836410       0.00727051      -0.00432292
H        2.75454465       0.52510401      -3.22576227      -0.01135438       0.00788880      -0.00326448
H        1.23469664      -2.13652785      -3.61960652       0.01350077      -0.00184991      -0.00194257
H       -1.76553636      -1.45540711      -3.75690155       0.00862053      -0.00621517      -0.00796412
H        0.29301691       0.36035195      -5.12079141       0.00171591      -0.00106964      -0.01631274
H        0.75111580       2.76014176      -3.15163858      -0.01279521       0.00511214      -0.00581488
H       -0.78841703       2.23776735      -1.03910078       0.01175620       0.00304924       0.00896765
H        2.33604203      -1.15272384      -0.99923619       0.00998553      -0.00699001       0.01927569
H       -0.54376863      -2.53703775      -1.26500407      -0.00291253      -0.01714463       0.00920266
H       -2.53235101      -0.05058749      -1.19074940       0.00260502       0.00020512       0.00791638
H       -2.00718118       1.61621540      -3.44498482      -0.00694241      -0.00532106      -0.01481173
