45
Properties=species:S:1:pos:R:3:forces:R:3 charge=-1 spin=1 energy=-242.2324676513672 free_energy=-242.2324676513672 stress="-4.400576258944966e-08 4.449676538342828e-08 1.6126142643457797e-09 4.449676538342828e-08 -6.849988665180717e-08 1.115481751412517e-08 1.6126142643457797e-09 1.115481751412517e-08 -2.3788544467606698e-07" pbc="F F F"
C       -0.27277060       1.41013978       1.55400000      -0.13108099       0.17839062       0.25509843
B       -1.05547945       1.09321160       3.02185709      -0.00230228      -0.00033058       0.00474772
B       -1.16092322      -0.66915685       3.06639316       0.00148804       0.00020047       0.00415659
B        0.50510988      -1.29905068       3.05520095      -0.00263240       0.00125146       0.00086142
B        0.12340040       0.19180193       3.96898697      -0.00250764      -0.00201194       0.00044761
B        0.63508757       1.54570427       3.02359457      -0.00163322       0.00270192       0.00164536
C        1.22270400       0.85781404       1.56400000       0.06747472      -0.06540081       0.15963706
B       -1.42211034       0.17992474       1.52922834       0.00042006      -0.00123720      -0.00521202
B       -0.47204820      -1.33934682       1.55272297      -0.00083534      -0.00032148      -0.00012779
B        1.24429169      -0.82057342       1.50853432       0.00177991      -0.00400154       0.00316161
B        1.59927919       0.08808482       3.01692109      -0.00062766      -0.00402405       0.00365929
C        1.14300000       0.92400000      -1.55300000       0.10456859      -0.04597968      -0.23430467
B        1.60713417       0.17729550      -2.99665953       0.00238875       0.00386624       0.00072611
B        0.65892895      -1.31298213      -3.02124077       0.00266372      -0.00171953      -0.00247668
B       -1.06144454      -0.85580995      -3.05399003      -0.00322616       0.00010352       0.00099276
B        0.13554475       0.11852362      -3.96013044      -0.00014064       0.00316631      -0.00190014
B        0.50059409       1.53027376      -3.03144645      -0.00090663       0.00069568       0.00155191
C       -0.40000000       1.32300000      -1.56800000      -0.17776379       0.22715755      -0.25944528
B        1.34030282      -0.74138237      -1.48372805       0.00067392       0.00335950       0.00478512
B       -0.31780840      -1.42780012      -1.52390503       0.00037499      -0.00055411       0.00496577
B       -1.42089485      -0.01834758      -1.52960087      -0.00215721       0.00397517      -0.00257570
B       -1.13601720       0.90804078      -3.03745529       0.00164967       0.00336098       0.00582024
Co       0.00000000       0.00000000       0.00000000       0.14481013      -0.31831187       0.05986100
H       -0.47498371       2.37348688       1.07592600       0.00109051      -0.00085896      -0.00028270
H       -1.86560714       1.86605513       3.42946517       0.00040856       0.00169636      -0.00057431
H       -2.05101585      -1.22959178       3.63056879       0.00117131       0.00296716      -0.00018518
H        0.80905066      -2.31351333       3.60577491      -0.00217833       0.00482778       0.00108096
H        0.13297147       0.20331800       5.15860756      -0.00075318       0.00245150      -0.00129606
H        1.03628045       2.61529099       3.34526877       0.00076067       0.00321379      -0.00050670
H        2.00449370       1.44385666       1.07328247      -0.00265636      -0.00159683       0.00162349
H       -2.51947710       0.38235732       1.10354638       0.00126507       0.00119254       0.00459943
H       -0.86683877      -2.39710442       1.15889560      -0.00025574       0.00534578       0.00274261
H        2.19862735      -1.40290115       1.09360206      -0.00063082       0.00265632       0.00721568
H        2.72019307       0.11577978       3.41928029       0.00109294       0.00221059       0.00197950
H        1.85897479       1.59644187      -1.07244136      -0.00369622      -0.00352774      -0.00262530
H        2.72143537       0.31707824      -3.39421051      -0.00151640       0.00012392      -0.00071754
H        1.06562711      -2.29831838      -3.55745706       0.00126139      -0.00187841      -0.00235040
H       -1.88634986      -1.51187966      -3.61371838      -0.00031322      -0.00161325      -0.00201326
H        0.15401543       0.11514515      -5.14962764      -0.00023349       0.00044682      -0.00209354
H        0.79462714       2.63082393      -3.36524051      -0.00109749      -0.00242805       0.00055614
H       -0.70270044       2.26885727      -1.10828366      -0.00136555       0.00168070      -0.00028446
H        2.34793656      -1.21256194      -1.05453049      -0.00299584       0.00011208      -0.00395828
H       -0.60944702      -2.51003473      -1.10880939       0.00344611       0.00178844      -0.00097459
H       -2.53494611       0.07630234      -1.10950685       0.00343478      -0.00135279      -0.00748482
H       -2.01784543       1.58928322      -3.45962914       0.00128269      -0.00179432      -0.00052595
