45
Properties=species:S:1:pos:R:3:forces:R:3 charge=-1 spin=1 energy=-54314.30146886605 free_energy=-54314.30146886605 stress="1.304725170135498 0.5865526795387268 -0.05118609219789505 0.5865526795387268 0.432167649269104 0.25163203477859497 -0.05118609219789505 0.25163203477859497 0.4194745719432831" pbc="F F F"
C       -0.67756154       1.26641556       1.55400000       0.12560287      -0.06986635      -0.09944892
B       -1.34622027       0.73765233       3.00475974       0.02036237       0.00130813       0.02494113
B       -0.90359309      -0.97307677       3.09627860       0.01655265      -0.01038345       0.01099636
B        0.85999610      -1.07122104       3.09784248       0.00950163       0.01414536       0.00924192
B        0.04308562       0.25008435       3.98632853       0.01042425      -0.00235567       0.00051361
B        0.13544821       1.70236456       2.96818435       0.00620181       0.00089737      -0.00953585
C        0.91436016       1.18101461       1.56400000      -0.53614742      -0.17986745      -0.10296373
B       -1.40251541      -0.28222955       1.54255692       0.00858155      -0.00730511      -0.00700344
B       -0.03307415      -1.42670048       1.57957581      -0.04233991       0.00090886      -0.00655032
B        1.43383217      -0.41786937       1.53926595       0.01860849       0.00368062       0.00866003
B        1.49385631       0.57091306       3.02847425       0.01424903      -0.00469329      -0.01114509
C        1.14300000       0.92400000      -1.55300000      -0.47546905      -0.33885190       0.07325744
B        1.60729563       0.16321569      -2.97669157      -0.02045402       0.01406009      -0.02705667
B        0.62951874      -1.30982110      -3.04444569      -0.02422357      -0.00098274      -0.01453372
B       -1.07147417      -0.83774402      -3.08665452      -0.00333481       0.02040887      -0.00465932
B        0.14330591       0.13322399      -3.97391977      -0.00664739      -0.00281787       0.00236505
B        0.51753020       1.55509283      -2.97931350      -0.01005570       0.00518124       0.01034251
C       -0.40000000       1.32300000      -1.56800000       0.25614309       0.15895721      -0.00816554
B        1.29813559      -0.77904092      -1.49009345      -0.00743319      -0.00881475       0.00734773
B       -0.36470539      -1.42638559      -1.54131686       0.03838809      -0.00979558       0.01428590
B       -1.43453417      -0.00751626      -1.54987686      -0.01155703       0.00587607      -0.01048178
B       -1.13421669       0.92209872      -3.04289725      -0.01051002       0.00359535       0.00358048
Co       0.00000000       0.00000000       0.00000000       0.62706840       0.47194526       0.11722656
H       -1.12096448       2.12589766       1.07654785      -0.01975876      -0.01318894      -0.01065209
H       -2.33923164       1.25393120       3.39071828      -0.00098433      -0.01236267       0.00093912
H       -1.59964444      -1.74783550       3.65987872       0.00235861      -0.01025327      -0.00234832
H        1.46168889      -1.92170832       3.66190713       0.00754484       0.00114332      -0.00256256
H        0.04360883       0.34188771       5.16870770       0.00516793      -0.00601038      -0.00308498
H        0.20428644       2.84431191       3.27031006      -0.00929058      -0.00339573       0.00446498
H        1.46056772       1.97871525       1.08563521      -0.02507030       0.01010111      -0.00587323
H       -2.50118000      -0.43195195       1.12992891      -0.00822504      -0.00144315      -0.00207880
H       -0.08513382      -2.56411943       1.25094707       0.00125475      -0.00286301      -0.00013250
H        2.50894019      -0.67914670       1.11917258      -0.02276970      -0.00172149       0.00633345
H        2.54003160       0.95794580       3.42510665       0.00394401       0.00408363      -0.00235202
H        1.82757508       1.60011123      -1.06836992       0.01378816      -0.01818673       0.01190949
H        2.71878232       0.31320407      -3.35612519      -0.00289528      -0.01202296      -0.00262364
H        1.04758577      -2.28135629      -3.57734113      -0.00547797      -0.00789220       0.00772238
H       -1.90487197      -1.45772581      -3.65699238      -0.00125940       0.00788682       0.00960602
H        0.18729508       0.19831397      -5.15756261      -0.00821444      -0.00665157       0.01001834
H        0.80604921       2.65765845      -3.29810481       0.00803616      -0.00824037      -0.00579899
H       -0.67161303       2.27070128      -1.12789978       0.02321781       0.00413507       0.00180289
H        2.27260227      -1.28541432      -1.05408059       0.01643431       0.00122637       0.00712346
H       -0.67819135      -2.51397548      -1.18971323      -0.00063499       0.00238736       0.00283369
H       -2.54122492       0.10838046      -1.14457339       0.02080357      -0.00067612      -0.00726479
H       -1.98794485       1.62889142      -3.45905674      -0.00148138       0.00871420       0.00080370
