45
Properties=species:S:1:pos:R:3:forces:R:3 charge=-1 spin=1 energy=-242.30897521972656 free_energy=-242.30897521972656 stress="-5.5416673916397485e-08 -4.9912851629585475e-09 3.46994539768275e-08 -4.9912851629585475e-09 -9.552707069815369e-08 1.0604535560787554e-07 3.46994539768275e-08 1.0604535560787554e-07 -1.765856723068282e-07" pbc="F F F"
C       -0.82488729      -1.17578015       1.55400000      -0.06758499      -0.23621710       0.18628272
B       -0.06969702      -1.52577851       3.02962786      -0.00079270      -0.00125242      -0.00176354
B        1.26802981      -0.36869104       3.08828479       0.00086948       0.00361218       0.00269482
B        0.55744027       1.26793159       3.08119183      -0.00273377       0.00191823       0.00080719
B       -0.25559540      -0.05921420       3.97975516       0.00167821       0.00391710       0.00147346
B       -1.57238189      -0.63105309       3.02185438      -0.00177450      -0.00049185      -0.00172728
C       -1.46642135       0.28365195       1.56400000      -0.05515063       0.05012882       0.09042816
B        0.85448593      -1.12772276       1.52978092      -0.00175838      -0.00433379       0.00016508
B        1.28871782       0.61530910       1.60799811      -0.00212079       0.00190139      -0.00049229
B       -0.28128634       1.47080539       1.53046827      -0.00039986       0.00026584      -0.00146405
B       -1.19877582       1.08119316       3.02417433      -0.00021702       0.00089253       0.00133464
C        1.14300000       0.92400000      -1.55300000       0.14277345      -0.00048372      -0.06695534
B        1.62282884       0.17907481      -2.98913772       0.00121523       0.00068086       0.00166336
B        0.66981287      -1.31085295      -3.01917856      -0.00217982      -0.00069506      -0.00285432
B       -1.05301928      -0.84729694      -3.07268997      -0.00205326       0.00372057      -0.00146520
B        0.16277306       0.12773494      -3.96381500      -0.00318379      -0.00139181      -0.00085095
B        0.52248667       1.53606594      -3.03534043       0.00123669       0.00208292       0.00148530
C       -0.40000000       1.32300000      -1.56800000      -0.13519168       0.24198994      -0.32181913
B        1.31965793      -0.74149832      -1.45711018       0.00319886       0.00095111      -0.00018470
B       -0.33819994      -1.43492277      -1.56250718      -0.00255430       0.00188243      -0.00065555
B       -1.42624063      -0.01295842      -1.55710719      -0.00035733       0.00068273      -0.00008306
B       -1.11926860       0.91963230      -3.04979696      -0.00092213      -0.00005809      -0.00183981
Co       0.00000000       0.00000000       0.00000000       0.13075744      -0.07599191       0.11527368
H       -1.35975960      -1.98104438       1.04164484       0.00178044       0.00131287      -0.00117134
H       -0.05368211      -2.65120305       3.42233697       0.00121309      -0.00013712       0.00064778
H        2.28302744      -0.63012822       3.65991767       0.00045687       0.00221811       0.00103537
H        1.06179760       2.18657869       3.65192672      -0.00293788      -0.00043413       0.00036973
H       -0.27971902      -0.06673776       5.16969762      -0.00065149       0.00014363       0.00187601
H       -2.62384174      -1.08956689       3.32823693      -0.00098631      -0.00117400       0.00059912
H       -2.42154707       0.43032981       1.05227860       0.00224201       0.00044603       0.00383280
H        1.48144608      -2.05198133       1.10312764      -0.00189448       0.00124642       0.00953147
H        2.31565165       1.06484047       1.18880454       0.00071573       0.00276712      -0.00170055
H       -0.52811753       2.54589692       1.06845489      -0.00127605      -0.00107614       0.00144216
H       -2.00682120       1.86217594       3.42167140      -0.00092761      -0.00155759      -0.00049123
H        1.84817493       1.57993112      -1.03476348      -0.00133257      -0.00209930       0.00253022
H        2.74646941       0.30609203      -3.36597278       0.00095066      -0.00111109      -0.00017156
H        1.08989778      -2.29338377      -3.55132481      -0.00162678      -0.00086975      -0.00067768
H       -1.87131203      -1.49488361      -3.65164486       0.00055543       0.00352971      -0.00049495
H        0.19041146       0.12189969      -5.15373697       0.00096589       0.00051872      -0.00155868
H        0.82140420       2.63707615      -3.36361925       0.00197665       0.00198275      -0.00073496
H       -0.69546116       2.26801369      -1.10328076       0.00059755      -0.00281020       0.00112940
H        2.30579591      -1.21503895      -0.97692235      -0.00071524       0.00227301      -0.00830827
H       -0.63902164      -2.50364514      -1.11615678      -0.00376723      -0.00103796      -0.00026932
H       -2.53847926       0.08756755      -1.12738885      -0.00017989       0.00050995      -0.00644595
H       -1.99519832       1.60486134      -3.47878776       0.00208709       0.00164856      -0.00042301
