45
Properties=species:S:1:pos:R:3:forces:R:3 charge=-1 spin=1 energy=-54314.55110646981 free_energy=-54314.55110646981 stress="0.7025144100189209 0.5253821611404419 -0.8416031002998352 0.5253821611404419 1.0580642223358154 -1.4430123567581177 -0.8416031002998352 -1.4430123567581177 2.028097152709961" pbc="F F F"
C        0.60581184      -1.30226342       1.55400000      -0.11847153       0.19292387      -0.22226146
B        1.29603264      -0.80673304       3.01634798       0.00288808       0.00201093      -0.00480308
B        0.96213378       0.93003678       3.10946146       0.00370798      -0.00098893       0.00223551
B       -0.79621759       1.14138796       3.09621825       0.00341133       0.00032659      -0.00324100
B       -0.07143420      -0.22995128       3.98462497      -0.00069110      -0.00304226      -0.00069236
B       -0.24160851      -1.67767188       2.96398681       0.00184969      -0.00064779       0.00057960
C       -0.97886047      -1.12813217       1.56400000       0.27470964       0.44876271      -0.45161361
B        1.41471582       0.19327273       1.55472501       0.00144677      -0.00261380       0.00012411
B        0.13525036       1.42672539       1.60107212      -0.00146778       0.00207277       0.00026611
B       -1.39830130       0.52125186       1.53501438       0.00201429       0.00277622      -0.00083089
B       -1.53372582      -0.46188127       3.01034376       0.00243494       0.00005420       0.00037521
C        1.14300000       0.92400000      -1.55300000      -0.33914530      -0.20816007       0.51218247
B        1.62569829       0.16740120      -2.97472547       0.00280741      -0.00375042       0.00504507
B        0.66959381      -1.31865886      -3.05350125       0.00382038      -0.00018465      -0.00302054
B       -1.04096828      -0.86257111      -3.10411954       0.00229898      -0.00190413       0.00301674
B        0.16457093       0.12346818      -3.97619537       0.00127782       0.00372260      -0.00109313
B        0.51776959       1.54933883      -2.97396943       0.00183240       0.00031359      -0.00010430
C       -0.40000000       1.32300000      -1.56800000      -0.04268486      -0.08015808       0.12368424
B        1.31588475      -0.76213592      -1.48755781       0.00181868       0.00417430      -0.00020509
B       -0.32550449      -1.43710943      -1.57243836      -0.00291997       0.00044143      -0.00085708
B       -1.42257593      -0.03590561      -1.57494497       0.00063704      -0.00213865       0.00081620
B       -1.12778789       0.90259838      -3.04626175       0.00079979      -0.00160788      -0.00054557
Co       0.00000000       0.00000000       0.00000000       0.17322409      -0.34630275       0.04252969
H        0.99391045      -2.17152133       1.04910141       0.00188251       0.00090791       0.00305807
H        2.25206106      -1.37829140       3.41586516      -0.00255695      -0.00035047       0.00018571
H        1.70641750       1.65698413       3.67671295       0.00308695       0.00222698       0.00243862
H       -1.35055181       2.02548724       3.65899520       0.00206829      -0.00295008      -0.00118448
H       -0.08718697      -0.32201971       5.16692476       0.00026556      -0.00052582      -0.00003562
H       -0.37473096      -2.80826184       3.27980751      -0.00292194      -0.00095635      -0.00014319
H       -1.55703254      -1.87351045       1.04340018       0.00135887       0.00213886       0.00166024
H        2.51411633       0.28180445       1.11334659       0.00449522      -0.00293696      -0.00388145
H        0.26842052       2.54995128       1.22196704       0.00088380       0.00081255       0.00197967
H       -2.43290605       0.87176291       1.07666366       0.00167661      -0.00035898       0.00854211
H       -2.60131029      -0.78386614       3.40674047       0.00130721       0.00006782      -0.00126739
H        1.80801877       1.59367662      -1.03340499       0.00287137      -0.00320322      -0.00284610
H        2.73554216       0.33173608      -3.35076019      -0.00115303       0.00132965      -0.00019829
H        1.10538441      -2.28428987      -3.58433892       0.00244571      -0.00383069      -0.00213703
H       -1.86756074      -1.48815330      -3.67938438       0.00214466       0.00089455       0.00105786
H        0.21324734       0.19331356      -5.15896529       0.00043777      -0.00011707      -0.00292489
H        0.80775478       2.64689000      -3.30071116      -0.00216084       0.00240431      -0.00004246
H       -0.67271825       2.25216026      -1.09434720       0.00032528      -0.00221684      -0.00074116
H        2.28445932      -1.24833595      -1.00105622       0.00378831       0.00197319       0.00360271
H       -0.62370529      -2.52084589      -1.17253084       0.00167253      -0.00001363      -0.00206741
H       -2.52614795       0.03805373      -1.15165816       0.00247090      -0.00121296      -0.00786095
H       -1.98334248       1.59847859      -3.47531764       0.00001256      -0.00016243       0.00121878
