45
Properties=species:S:1:pos:R:3:forces:R:3 charge=-1 spin=1 energy=-242.23411560058594 free_energy=-242.23411560058594 stress="-7.132697277256739e-08 4.119883811881664e-08 2.1177850584308544e-08 4.119883811881664e-08 -6.606934732644731e-08 1.1950120004655673e-08 2.1177850584308544e-08 1.1950120004655673e-08 -2.108299668179825e-07" pbc="F F F"
C       -0.82274386       1.17728099       1.55400000      -0.19358703       0.14327547       0.22762489
B       -1.41337587       0.57159414       3.01995940      -0.00095928      -0.00065255      -0.00009093
B       -0.79054691      -1.07968118       3.06746795      -0.00055917       0.00005025      -0.00040436
B        0.98885188      -0.97609417       3.06045608      -0.00029123       0.00055435       0.00094218
B        0.02713235       0.23096058       3.96981947      -0.00108406       0.00045928      -0.00022611
B       -0.05436656       1.67400928       3.02147397      -0.00015525       0.00009514       0.00036099
C        0.76809128       1.28097064       1.56400000       0.08510967      -0.03419620       0.17919372
B       -1.36666285      -0.41562568       1.51914900       0.00070360      -0.00053017      -0.00188109
B        0.11820659      -1.41431641       1.55940330       0.00005078      -0.00001910       0.00162865
B        1.47897117      -0.23914058       1.52274421       0.00061861       0.00013867       0.00294828
B        1.42195348       0.73552145       3.02002096      -0.00085166       0.00002076      -0.00004982
C        1.14300000       0.92400000      -1.55300000       0.11637004      -0.02750224      -0.19627833
B        1.61119771       0.17517113      -2.99157350       0.00103416      -0.00313002      -0.00009169
B        0.66163186      -1.31396297      -3.01707107       0.00048506      -0.00054964       0.00183919
B       -1.06002722      -0.85568986      -3.05476130       0.00199151      -0.00019994      -0.00093651
B        0.14226241       0.11717353      -3.95835949       0.00142175      -0.00166508       0.00084718
B        0.50587263       1.52908945      -3.03051652       0.00020178      -0.00073392      -0.00182243
C       -0.40000000       1.32300000      -1.56800000      -0.19122130       0.21619138      -0.27236652
B        1.33313466      -0.74323618      -1.46863388      -0.00183079      -0.00095644       0.00376458
B       -0.32293493      -1.42729798      -1.52312280       0.00006418       0.00003827      -0.00104576
B       -1.42733180      -0.01448480      -1.54054658      -0.00081572      -0.00041625      -0.00205770
B       -1.13255936       0.90872404      -3.03760758       0.00136065      -0.00185523      -0.00160047
Co       0.00000000       0.00000000       0.00000000       0.17715892      -0.30023575       0.05515026
H       -1.39706486       1.97209800       1.06798851      -0.00108849       0.00137378      -0.00137844
H       -2.47118845       0.94539767       3.42148183      -0.00136799      -0.00014473      -0.00065511
H       -1.37809862      -1.95374397       3.62925099      -0.00072999       0.00019493       0.00019623
H        1.67528152      -1.77662532       3.61930722       0.00031710       0.00037421       0.00085694
H        0.02823888       0.24812935       5.15937577      -0.00097582       0.00067794      -0.00011204
H       -0.12432998       2.81529271       3.34022208      -0.00104969       0.00028849      -0.00034159
H        1.24414355       2.13444835       1.07286914       0.00304461       0.00604574      -0.00225946
H       -2.44839227      -0.67582933       1.08330156      -0.00101168       0.00124840      -0.00304028
H        0.18323946      -2.54315892       1.16937239      -0.00197531      -0.00150104       0.00166471
H        2.58065778      -0.37573445       1.08510414      -0.00098497      -0.00102704      -0.00851526
H        2.42959996       1.22290768       3.42851054      -0.00060232       0.00071567      -0.00004633
H        1.85589074       1.59305872      -1.06310153       0.00161409       0.00141953       0.00257130
H        2.72764897       0.31028112      -3.38493435       0.00196066      -0.00133809       0.00157499
H        1.06964605      -2.30061650      -3.55067747       0.00106081      -0.00031412       0.00217249
H       -1.88178199      -1.51095341      -3.62036187       0.00134011      -0.00011768       0.00012826
H        0.16154850       0.11393035      -5.14798638       0.00196182      -0.00146004       0.00119424
H        0.80046781       2.62931629      -3.36494339       0.00172025      -0.00030512      -0.00056094
H       -0.70299636       2.27067629      -1.11151973      -0.00127597       0.00536299       0.00065058
H        2.32959269      -1.21402430      -1.01121906       0.00092382       0.00221018       0.00825574
H       -0.61122977      -2.51133562      -1.10883541       0.00114910      -0.00125632       0.00017177
H       -2.53896403       0.08019864      -1.11312692      -0.00070477      -0.00050354       0.00273076
H       -2.01011343       1.59205995      -3.46557442       0.00145940      -0.00012548      -0.00070632
