45
Properties=species:S:1:pos:R:3:forces:R:3 charge=-1 spin=1 energy=-242.27944946289062 free_energy=-242.27944946289062 stress="-6.877578329067546e-08 1.1887866691040472e-08 -5.5163912549005545e-08 1.1887866691040472e-08 -9.772049480716305e-08 7.706022842057791e-08 -5.5163912549005545e-08 7.706022842057791e-08 -1.8383485667072819e-07" pbc="F F F"
C        1.42573227       0.17373977       1.55400000       0.19107920       0.08647770       0.29568809
B        1.17438370       0.96506349       3.02605052      -0.00446064       0.00257994       0.00318038
B       -0.57741529       1.19731685       3.07934368      -0.00188392      -0.00030620       0.00065165
B       -1.32628783      -0.42383289       3.05511460      -0.00028446       0.00113841       0.00154628
B        0.19045972      -0.15775788       3.97125601      -0.00109842       0.00209269      -0.00097773
B        1.50281942      -0.75880736       3.02544168      -0.00026391       0.00066296       0.00207809
C        0.77043293      -1.27956364       1.56400000      -0.00812015      -0.09922805       0.03441872
B        0.27845393       1.40968431       1.54844036      -0.00424728      -0.00064784       0.00057259
B       -1.30824838       0.57616832       1.58289950      -0.00298703       0.00041761       0.00307398
B       -0.89958254      -1.17194076       1.47946891      -0.00190759      -0.00317490       0.00318272
B       -0.02138319      -1.61472341       3.01323782      -0.00206032       0.00053138       0.00199083
C        1.14300000       0.92400000      -1.55300000       0.09836448       0.01323274      -0.18326211
B        1.61838825       0.19660142      -2.99571699      -0.00012186      -0.00430647      -0.00337015
B        0.67542655      -1.29570333      -3.04182235      -0.00188656      -0.00040364       0.00002482
B       -1.05113253      -0.83750522      -3.07439135       0.00063217      -0.00107928      -0.00151336
B        0.14625544       0.14960694      -3.96867960      -0.00011313      -0.00165761       0.00147524
B        0.50456331       1.55093226      -3.02788839      -0.00069701       0.00053546      -0.00267831
C       -0.40000000       1.32300000      -1.56800000      -0.14192444       0.33355665      -0.22536156
B        1.34142677      -0.74300743      -1.50130700      -0.00488302      -0.00285666      -0.00012295
B       -0.30897826      -1.43831187      -1.57352529      -0.00143994      -0.00497082      -0.00221948
B       -1.40696893      -0.01753246      -1.52214804      -0.00158077      -0.00063212      -0.00508058
B       -1.13039270       0.92570921      -3.04485773      -0.00101964      -0.00124466      -0.00218439
Co       0.00000000       0.00000000       0.00000000      -0.10241000      -0.31942511       0.07318387
H        2.39849147       0.29964895       1.06808126       0.00006007      -0.00019079       0.00201205
H        2.00595283       1.71347845       3.43772858      -0.00079826       0.00258739      -0.00165139
H       -1.06442015       2.11838077       3.66151586      -0.00194658      -0.00012363      -0.00167026
H       -2.35796929      -0.66537879       3.60556673       0.00065690      -0.00085705      -0.00016965
H        0.20223168      -0.17427223       5.16134018      -0.00023537       0.00259254      -0.00248770
H        2.54163524      -1.23861139       3.34168064       0.00202799       0.00151061       0.00080951
H        1.29367766      -2.08614665       1.04299637      -0.00269645      -0.00094588      -0.00112858
H        0.54530537       2.48039608       1.08298645       0.00123262      -0.00038309      -0.00292308
H       -2.33332733       1.03820083       1.17437717      -0.00125492      -0.00188165      -0.00095738
H       -1.53584422      -2.07785485       1.02978801       0.00468262      -0.00341812      -0.00291964
H       -0.08486568      -2.74051129       3.39986486       0.00176923       0.00009575       0.00084920
H        1.85001011       1.59508694      -1.05529433      -0.00517134       0.00075961       0.00562859
H        2.73436149       0.34426322      -3.38717501       0.00168249      -0.00208021      -0.00036202
H        1.08753358      -2.26796946      -3.59769545      -0.00168837      -0.00029820       0.00258809
H       -1.87690131      -1.48450450      -3.64447917      -0.00109941       0.00125440       0.00120523
H        0.16985800       0.15642916      -5.15863719      -0.00031389      -0.00215137       0.00322686
H        0.79755138       2.65599116      -3.34758747       0.00150434       0.00124726      -0.00224821
H       -0.69907098       2.25702726      -1.08106626      -0.00371965      -0.00142183       0.00037401
H        2.31708310      -1.21187007      -0.99230139       0.00179175      -0.00308372       0.00141411
H       -0.60825150      -2.51781442      -1.15637359      -0.00210126       0.00175753       0.00347875
H       -2.52144680       0.07875834      -1.09923779      -0.00110280       0.00218627       0.00041912
H       -2.02033792       1.60290923      -3.45753087       0.00003508       0.00155251       0.00021593
