45
Properties=species:S:1:pos:R:3:forces:R:3 charge=-1 spin=1 energy=-54314.557080285726 free_energy=-54314.557080285726 stress="0.7130251526832581 0.5393176674842834 -0.8823580145835876 0.5393176674842834 1.0346630811691284 -1.438903570175171 -0.8823580145835876 -1.438903570175171 2.0907177925109863" pbc="F F F"
C        0.55999446      -1.32261265       1.55400000      -0.10364320       0.19991544      -0.22746617
B        1.26703422      -0.85151862       3.01645207       0.00324066       0.00362713      -0.00657445
B        0.99393728       0.89591976       3.10942189       0.00258046      -0.00082527       0.00285591
B       -0.75595887       1.16847807       3.09627594       0.00208157       0.00110373      -0.00382302
B       -0.07938739      -0.22726167       3.98463991      -0.00214730      -0.00352940      -0.00085487
B       -0.30004316      -1.66821268       2.96397395       0.00196548      -0.00124393      -0.00029131
C       -1.01763541      -1.09328320       1.56400000       0.28872508       0.43431237      -0.45739883
B        1.42067594       0.14385419       1.55466860       0.00138481       0.00019575      -0.00333050
B        0.18498127       1.42105280       1.60108149      -0.00369113       0.00051499      -0.00056569
B       -1.37918574       0.56964286       1.53507919       0.00238063       0.00296899      -0.00065157
B       -1.54895768      -0.40806808       3.01032062       0.00076972      -0.00036516      -0.00021768
C        1.14300000       0.92400000      -1.55300000      -0.33472416      -0.21339636       0.51725686
B        1.62565194       0.16748210      -2.97483951       0.00240635      -0.00561212       0.00752403
B        0.66951995      -1.31866092      -3.05345079       0.00267951      -0.00003015      -0.00352357
B       -1.04101072      -0.86253649      -3.10417896       0.00061616      -0.00224255       0.00369176
B        0.16455834       0.12339489      -3.97618066       0.00038072       0.00499777      -0.00116645
B        0.51773986       1.54933841      -2.97396862       0.00174450       0.00104779       0.00115632
C       -0.40000000       1.32300000      -1.56800000      -0.04234534      -0.07576257       0.12387253
B        1.31593580      -0.76227644      -1.48749494      -0.00020956       0.00121337       0.00555601
B       -0.32544047      -1.43708517      -1.57243530      -0.00501589       0.00218714       0.00067532
B       -1.42246190      -0.03587288      -1.57500962       0.00130784      -0.00258992       0.00129798
B       -1.12780562       0.90262317      -3.04623958      -0.00071268      -0.00099574      -0.00005814
Co       0.00000000       0.00000000       0.00000000       0.16612308      -0.34027705       0.04445562
H        0.91749844      -2.20491216       1.04904541       0.00154390       0.00104593       0.00232690
H        2.20263146      -1.45604554       3.41585982      -0.00334337       0.00020911       0.00013704
H        1.76315575       1.59638246       3.67667317       0.00332044       0.00270354       0.00284718
H       -1.27906823       2.07143321       3.65901439       0.00141376      -0.00281490      -0.00068430
H       -0.09837647      -0.31877422       5.16691933      -0.00006803      -0.00048855       0.00039184
H       -0.47246308      -2.79345495       3.27980806      -0.00334554      -0.00135196       0.00024120
H       -1.62151214      -1.81808917       1.04335668       0.00169017       0.00208728       0.00073607
H        2.52227920       0.19393168       1.11343302       0.00384471       0.00115565       0.00111122
H        0.35724177       2.53905070       1.22192758      -0.00031319      -0.00081836      -0.00050355
H       -2.40110495       0.95617633       1.07650202       0.00189792      -0.00142898      -0.00090830
H       -2.62709633      -0.69260312       3.40675933       0.00018698      -0.00046156      -0.00027596
H        1.80798786       1.59373601      -1.03335124       0.00229092      -0.00302039      -0.00207056
H        2.73556505       0.33171520      -3.35075341      -0.00199219       0.00127147      -0.00031547
H        1.10534704      -2.28422238      -3.58430178       0.00244008      -0.00456485      -0.00267491
H       -1.86759003      -1.48816766      -3.67939993       0.00149560       0.00076911       0.00052698
H        0.21324097       0.19331732      -5.15891092       0.00013991      -0.00014096      -0.00387039
H        0.80778664       2.64684747      -3.30070780      -0.00218289       0.00313553      -0.00058602
H       -0.67272977       2.25222145      -1.09432337       0.00058552      -0.00230690       0.00011623
H        2.28433488      -1.24832782      -1.00114254       0.00202871      -0.00213480      -0.00088449
H       -0.62373506      -2.52086759      -1.17249228       0.00040419       0.00163235       0.00050721
H       -2.52627843       0.03807820      -1.15150637       0.00289548      -0.00033674       0.00102397
H       -1.98333869       1.59847730      -3.47533525      -0.00083039       0.00064495       0.00038824
