45
Properties=species:S:1:pos:R:3:forces:R:3 charge=-1 spin=1 energy=-242.23876953125 free_energy=-242.23876953125 stress="1.266908356001295e-08 -1.286272777178965e-08 2.87591426229028e-08 -1.286272777178965e-08 5.93777897961445e-08 2.21444871328913e-08 2.87591426229028e-08 2.21444871328913e-08 9.633344433268576e-08" pbc="F F F"
C       -1.19122243       0.87487097       1.59190118       0.00988463       0.00899982       0.00182211
B       -1.55147918       0.12932398       3.04923434      -0.01075865      -0.01191254       0.00078611
B       -0.42842235      -1.23096878       3.11392214       0.00813136      -0.00616506       0.00338243
B        1.22655925      -0.56399000       3.11640204      -0.00418563       0.00016247      -0.00500929
B       -0.08293425       0.28342592       4.00474845       0.00840989      -0.00648692       0.00091151
B       -0.61753876       1.60958305       3.03329684      -0.00104309       0.00153888      -0.00733699
C        0.30052333       1.47704084       1.59213051      -0.04086092       0.00528088      -0.00620672
B       -1.15631573      -0.80026882       1.53001205      -0.00330260      -0.00528902       0.02955990
B        0.56347363      -1.28786702       1.63600000      -0.06293283       0.05217993      -0.16669580
B        1.45422841       0.26577561       1.55829238      -0.01527292      -0.01502529      -0.01777762
B        1.08709068       1.19229697       3.04360397      -0.00212501      -0.00427624       0.00707280
C        1.14344304       0.96171780      -1.59035027      -0.02586694       0.02453417       0.01087815
B        1.62116817       0.24769703      -3.02731120       0.01100938      -0.01835037      -0.00762102
B        0.69810165      -1.25394611      -3.08138186      -0.00375076      -0.00794451      -0.00047972
B       -1.03182326      -0.82220057      -3.11234015       0.00458682      -0.00084811       0.00366085
B        0.15814967       0.18512734      -4.00223632      -0.00941058      -0.00960778      -0.00074271
B        0.49938299       1.58695515      -3.04914149      -0.01259965       0.00126077      -0.00692560
C       -0.41959572       1.36041395      -1.61975831      -0.01143567      -0.00816834      -0.00193107
B        1.32807211      -0.69701442      -1.48342481      -0.00073779      -0.00730933      -0.04460096
B       -0.27500000      -1.43300000      -1.61500000      -0.08213407       0.17331284       0.20812131
B       -1.39894818      -0.00788650      -1.57904711       0.00931534      -0.00242272       0.01844572
B       -1.13801317       0.94117717      -3.07263137       0.00203308      -0.00218346      -0.00022935
Co       0.00000000       0.00000000       0.00000000       0.17094009      -0.22315142      -0.02986673
H       -1.98225957       1.42735991       1.07542362       0.00665984       0.00702608       0.01573594
H       -2.67551804       0.13562912       3.44721534       0.00273973      -0.00365701      -0.00546508
H       -0.71875554      -2.23558033       3.69024641      -0.00281983      -0.00727518      -0.00583961
H        2.12746272      -1.08726409       3.69979572       0.00158700       0.00311011      -0.00710351
H       -0.09610287       0.32467567       5.19400411       0.00199978      -0.00999852      -0.00065869
H       -1.04394517       2.67577311       3.33756146      -0.00372493      -0.00814703       0.00089364
H        0.47543592       2.42943341       1.08223859      -0.00235565       0.00950611       0.00979917
H       -2.09876668      -1.40014594       1.10519840      -0.01007335      -0.01163901      -0.01200412
H        0.98847409      -2.34270305       1.25958359      -0.01101406       0.04327789       0.01525744
H        2.53073663       0.47460383       1.08225798      -0.00449615       0.00387591      -0.00457358
H        1.88573320       1.98116523       3.44464380       0.00145137       0.00687316       0.00314102
H        1.84347854       1.62088992      -1.06984110       0.00232607       0.02457481      -0.01274812
H        2.73868311       0.39437940      -3.41534470       0.00720614       0.00154502       0.01197414
H        1.13022497      -2.21513166      -3.64285257       0.01361632      -0.00610383       0.01246245
H       -1.84825187      -1.47114563      -3.69413228       0.00695212      -0.00162553       0.00606001
H        0.17732295       0.21128136      -5.19189389       0.00523444      -0.01384248       0.00106466
H        0.78263192       2.69462068      -3.37073799       0.00339977      -0.00069645      -0.00354412
H       -0.73060441       2.29327247      -1.13832760       0.00335233      -0.00306082      -0.01223712
H        2.33802310      -1.15122612      -1.03777743       0.01635056      -0.00826989       0.02381572
H       -0.56180345      -2.52350374      -1.21286555       0.00438145       0.03848872      -0.01343193
H       -2.50579509       0.04900410      -1.12687428       0.01380795       0.00583269      -0.00476560
H       -2.03068178       1.60946184      -3.49581592       0.00552581      -0.00792347      -0.00705038
