45
Properties=species:S:1:pos:R:3:forces:R:3 charge=-1 spin=1 energy=-242.2495880126953 free_energy=-242.2495880126953 stress="4.748818671629351e-09 1.809758387594229e-08 -3.606569265457438e-08 1.809758387594229e-08 6.239839933641633e-08 2.4552855748538605e-08 -3.606569265457438e-08 2.4552855748538605e-08 4.30502709036773e-08" pbc="F F F"
C        0.63698722       1.33872282       1.59806007      -0.00102004       0.00359938      -0.00483203
B       -0.16886025       1.54676560       3.05107409      -0.00498376       0.01263154       0.00369750
B       -1.29247296       0.18561164       3.11321946      -0.01352203      -0.00309386       0.00500727
B       -0.32000425      -1.30990319       3.10532655      -0.00683324      -0.01111755       0.00266524
B        0.26383290       0.12548545       4.00312208      -0.00621200      -0.00533174       0.00816098
B        1.46658882       0.90768405       3.03980511       0.00372565       0.00522818      -0.00811719
C        1.51000183      -0.00922284       1.59006737       0.01765093       0.02754462      -0.01834938
B       -1.00722980       1.00422918       1.55984306       0.01218715       0.00668585       0.00138000
B       -1.15947093      -0.79481517       1.63600000       0.04263347       0.11933593      -0.21806559
B        0.52041873      -1.35797655       1.51244193       0.00539070      -0.01815334       0.02201644
B        1.38001034      -0.83759842       3.04113754      -0.00181513      -0.01605289      -0.00083149
C        1.12924424       0.97598540      -1.59043132       0.01647860      -0.01635376       0.00196359
B        1.62188889       0.25045243      -3.01889916       0.01253449       0.00309840      -0.00142908
B        0.70472006      -1.25695815      -3.07456846       0.00549665      -0.01179427      -0.00573745
B       -1.02533519      -0.82505344      -3.10567370      -0.00460725      -0.01158343      -0.00325377
B        0.15705078       0.17971430      -4.00056662      -0.00158174      -0.00736153      -0.00469994
B        0.48926843       1.58958190      -3.05659008       0.00161866       0.00342745      -0.00385882
C       -0.42876051       1.36296932      -1.62231768       0.01189062       0.01920447       0.02007568
B        1.34719692      -0.68754055      -1.51808331       0.01304728       0.01580268      -0.00032990
B       -0.27500000      -1.43300000      -1.61500000      -0.04017591       0.16889536       0.20689632
B       -1.38269611      -0.01469711      -1.54357824      -0.00916818      -0.01240857      -0.01776619
B       -1.13580119       0.93967946      -3.07982234      -0.01773858      -0.01497888      -0.00658755
Co       0.00000000       0.00000000       0.00000000       0.03860305      -0.22832805       0.02470570
H        1.04304335       2.22241139       1.09493853      -0.00433072      -0.00749233       0.03237711
H       -0.36828851       2.65157750       3.45398169      -0.00185097      -0.01131096       0.00605668
H       -2.33483431       0.27750728       3.68858839       0.00624637      -0.00555076       0.00316501
H       -0.65695697      -2.30353327       3.67550175       0.00421120      -0.00766039      -0.00240132
H        0.29169556       0.14351522       5.19252544       0.00064611      -0.00650791       0.00504792
H        2.43047293       1.53073974       3.34665775      -0.01028532      -0.00511496       0.00724895
H        2.47005937      -0.00332099       1.06530713      -0.00768094      -0.01257697       0.03055572
H       -1.77778622       1.80271460       1.11206635       0.00900231      -0.00042854      -0.01593286
H       -2.10790157      -1.40167916       1.23050857       0.00259653       0.01288239       0.02294449
H        0.94878885      -2.38544442       1.07712678      -0.00565732       0.00063327      -0.00613989
H        2.30271448      -1.48363469       3.43136032       0.00057410      -0.00264935      -0.00007090
H        1.82339252       1.65351045      -1.08268808      -0.00930516       0.00038645      -0.03281513
H        2.74051118       0.40943325      -3.40108821      -0.01279595       0.00263422      -0.00524421
H        1.14243261      -2.22042459      -3.62809899      -0.00384793       0.00694449      -0.00381993
H       -1.84456797      -1.47740363      -3.67919684      -0.00637248      -0.00179108       0.00046099
H        0.18610024       0.18946937      -5.18998641      -0.00238676      -0.00105144      -0.00535995
H        0.77632562       2.69568030      -3.38054219      -0.00950906      -0.00383496      -0.00666572
H       -0.74580159       2.28534448      -1.12551787      -0.02378218      -0.00537986      -0.02889077
H        2.34338486      -1.14173630      -1.03750724      -0.00699467       0.01306415       0.01403195
H       -0.55841346      -2.51358679      -1.18603220       0.02134370       0.02172992      -0.02622957
H       -2.50515603       0.05813695      -1.13739756      -0.00520861      -0.01263412       0.00892194
H       -2.03528641       1.59638123      -3.50477400      -0.00821194      -0.00318782       0.00004865
