45
Properties=species:S:1:pos:R:3:forces:R:3 charge=-1 spin=1 energy=-242.27452087402344 free_energy=-242.27452087402344 stress="-6.011696740415573e-08 2.537892207499226e-08 -2.06448547146465e-08 2.537892207499226e-08 -8.779836946359865e-08 1.0507388736868961e-07 -2.06448547146465e-08 1.0507388736868961e-07 -1.249044174755909e-07" pbc="F F F"
C        0.65089113      -1.28032759       1.55400000       0.15351111      -0.12618503       0.22282904
B        1.31001293      -0.78247714       3.03140682       0.00234549      -0.00112069      -0.00396249
B        0.92315940       0.94425864       3.09135052      -0.00270797       0.00310485      -0.00207330
B       -0.85472443       1.08879131       3.07353705      -0.00239728      -0.00183536       0.00131023
B       -0.07734746      -0.25370365       3.97901364      -0.00196220       0.00206136      -0.00153277
B       -0.19155275      -1.68605561       3.02257542       0.00307089       0.00046113       0.00036728
C       -0.93889293      -1.16160668       1.56400000      -0.08183105      -0.03418761       0.00493696
B        1.41078383       0.22595434       1.55050185      -0.00133890       0.00012302       0.00199613
B        0.07846466       1.42436861       1.60311521      -0.00093955      -0.00114319      -0.00179079
B       -1.42168099       0.44296633       1.51192744       0.00090188       0.00087508      -0.00592281
B       -1.52153754      -0.54956926       3.02079447       0.00082743       0.00310405       0.00626011
C        1.14300000       0.92400000      -1.55300000       0.12490162      -0.00899282      -0.09018131
B        1.62496843       0.19407383      -2.99342364       0.00226654      -0.00143705       0.00199443
B        0.67767483      -1.29917887      -3.03574194      -0.00529793      -0.00145458       0.00221875
B       -1.04546979      -0.83819212      -3.08249568       0.00009896       0.00262607      -0.00175991
B        0.16245803       0.14828057      -3.97004413      -0.00308002      -0.00183164       0.00135421
B        0.51839884       1.55094780      -3.03053500       0.00195966      -0.00068408      -0.00101061
C       -0.40000000       1.32300000      -1.56800000      -0.13852134       0.27412167      -0.22475711
B        1.33179934      -0.74567259      -1.48564847      -0.00218773      -0.00087647      -0.00317088
B       -0.32271291      -1.43405128      -1.57700234      -0.00016338       0.00034738       0.00019957
B       -1.41816735      -0.01517778      -1.55371766       0.00052565      -0.00135128       0.00561568
B       -1.11837348       0.93037946      -3.05274769       0.00057485      -0.00399192      -0.00750378
Co       0.00000000       0.00000000       0.00000000      -0.08502373      -0.10375007       0.09186461
H        1.10786638      -2.13381020       1.04440865       0.00062196      -0.00270033      -0.00048460
H        2.30404633      -1.30446977       3.43214399       0.00345294       0.00211651      -0.00149904
H        1.62284344       1.71605513       3.67426677       0.00034982       0.00069862      -0.00278041
H       -1.43435429       1.96776493       3.63605482       0.00182394      -0.00140703       0.00265147
H       -0.08821985      -0.27701250       5.16935028       0.00322323       0.00033826      -0.00233245
H       -0.28482303      -2.82979638       3.32772178       0.00254659       0.00020263      -0.00064914
H       -1.51599063      -1.92857507       1.04005430      -0.00359149      -0.00546141      -0.00525680
H        2.50803058       0.34105741       1.08956367       0.00223415      -0.00097782       0.00191134
H        0.16096015       2.54538370       1.18883670      -0.00074008      -0.00149756       0.00014014
H       -2.49273334       0.73168892       1.07006980       0.00217539      -0.00269178      -0.00499465
H       -2.59713291      -0.88597542       3.40973123       0.00118023      -0.00262543       0.00185923
H        1.84706201       1.58039113      -1.03333362       0.00279850       0.00349373       0.00218520
H        2.74587893       0.33272947      -3.37418341       0.00322199      -0.00186584       0.00241780
H        1.09299310      -2.27519489      -3.58312486      -0.00029159       0.00162263       0.00270363
H       -1.86684080      -1.48281251      -3.66119215       0.00320762       0.00247632      -0.00250017
H        0.18899621       0.15064821      -5.16032031       0.00289170      -0.00034821       0.00262669
H        0.81439557       2.65596845      -3.34815019       0.00285049       0.00044540       0.00058074
H       -0.69970337       2.25778937      -1.08361397      -0.00022195       0.00321286       0.00208486
H        2.30506918      -1.21359528      -0.97443277       0.00230591       0.00080100      -0.00206712
H       -0.62448125      -2.50742201      -1.14023524      -0.00100787       0.00302455       0.00121408
H       -2.53925731       0.08304582      -1.15321489       0.00287903       0.00071327       0.00578584
H       -2.00122879       1.61247075      -3.47285427       0.00255682       0.00244665      -0.00087802
