45
Properties=species:S:1:pos:R:3:forces:R:3 charge=-1 spin=1 energy=-54314.34497930306 free_energy=-54314.34497930306 stress="1.1296000480651855 -0.3272525370121002 0.23385336995124817 -0.3272525370121002 0.6760768294334412 -0.47598111629486084 0.23385336995124817 -0.47598111629486084 0.8746984601020813" pbc="F F F"
C        1.25683188       0.69517741       1.55400000       0.08001522      -0.19306710      -0.03826507
B        0.73962032       1.36339532       3.01724917      -0.00015592      -0.00100386      -0.00261100
B       -0.97363351       0.93319421       3.10631507      -0.00016162      -0.00363148       0.00091230
B       -1.08130180      -0.83356752       3.08969134      -0.00062091      -0.00076507      -0.00597689
B        0.24265285      -0.03238357       3.98477529       0.00008474       0.00113395      -0.00076268
B        1.69545510      -0.12271521       2.96700216       0.00059769       0.00115830      -0.00100386
C        1.19366595      -0.89778149       1.56400000      -0.60429806       0.45176941      -0.21619402
B       -0.26984872       1.42177338       1.55756079       0.00428683      -0.00243339       0.00054090
B       -1.43459466       0.07314684       1.59092140       0.00156571      -0.00443302       0.00187283
B       -0.43183780      -1.40711048       1.52087724      -0.00452203       0.00097963       0.00045958
B        0.55784788      -1.47831556       3.01172006       0.00039481       0.00017201       0.00048520
C        1.14300000       0.92400000      -1.55300000      -0.41977102      -0.00651759       0.11546222
B        1.63269510       0.20446658      -2.99617822      -0.00073028       0.00039406       0.00274234
B        0.68955324      -1.28805221      -3.08189456      -0.00379889       0.00114487      -0.00067373
B       -1.02433536      -0.84819138      -3.10956695      -0.00124400      -0.00000172       0.00620475
B        0.16578208       0.15712112      -3.98709433       0.00127953       0.00049239       0.00102820
B        0.51268282       1.57152908      -2.97278882       0.00249317       0.00022667       0.00073193
C       -0.40000000       1.32300000      -1.56800000       0.07889324      -0.09916887       0.14830634
B        1.33500911      -0.74767021      -1.52329362      -0.00146539       0.00533604      -0.00139274
B       -0.30247181      -1.44268668      -1.58665340      -0.00349997       0.00296072      -0.00279978
B       -1.40929105      -0.04463054      -1.55696303      -0.00129653      -0.00292713      -0.00027515
B       -1.12690177       0.90956241      -3.03983154      -0.00028617      -0.00002598       0.00020252
Co       0.00000000       0.00000000       0.00000000       0.87120622      -0.15567641      -0.01043737
H        2.11916026       1.13249208       1.07594765       0.00094588       0.00283704       0.00753131
H        1.26416550       2.35087151       3.40699572      -0.00184713      -0.00096461      -0.00042503
H       -1.74601392       1.63078220       3.67282347       0.00032721      -0.00266568       0.00015680
H       -1.93225272      -1.43672430       3.65192522       0.00458421       0.00024941      -0.00229891
H        0.33272352      -0.04339522       5.16717223       0.00094065      -0.00205299      -0.00086804
H        2.83438396      -0.18652820       3.27741303       0.00111349      -0.00018515      -0.00075795
H        1.97692475      -1.43316734       1.05809092      -0.00176350      -0.00003792       0.00538230
H       -0.39883139       2.51861295       1.11235063      -0.00391048       0.00502002       0.00071718
H       -2.57029308       0.14053307       1.25676164      -0.00144130      -0.00214406       0.00094386
H       -0.71727786      -2.47471296       1.10136976       0.00278473       0.00039625       0.00012986
H        0.93434822      -2.52743701       3.40847938       0.00167157      -0.00245163      -0.00185926
H        1.80892921       1.61341095      -1.05983941       0.00303015      -0.00018953      -0.00714195
H        2.74138072       0.38834131      -3.36933906      -0.00177116      -0.00155769       0.00069120
H        1.12666822      -2.24700125      -3.62368772      -0.00285262       0.00149306       0.00010770
H       -1.84712840      -1.47641135      -3.68591057       0.00126440       0.00490573       0.00182830
H        0.20363237       0.23814933      -5.16957956      -0.00143214       0.00183144       0.00107415
H        0.79116744       2.67821432      -3.28094890       0.00065112       0.00162479       0.00104471
H       -0.67807133       2.25038664      -1.09688110      -0.00041506      -0.00121489      -0.00326503
H        2.32449120      -1.21481344      -1.05521163       0.00347113      -0.00548307      -0.00223237
H       -0.58704470      -2.54118324      -1.24543201      -0.00374654      -0.00145430      -0.00152997
H       -2.52050990       0.02727551      -1.15903105       0.00045994       0.00291342       0.00041459
H       -1.99402618       1.60030730      -3.45286367      -0.00103125       0.00301402       0.00179975
