45
Properties=species:S:1:pos:R:3:forces:R:3 charge=-1 spin=1 energy=-54314.27829839486 free_energy=-54314.27829839486 stress="1.408332109451294 0.5797343254089355 0.10074484348297119 0.5797343254089355 0.5197195410728455 0.14165624976158142 0.10074484348297119 0.14165624976158142 -0.6559846997261047" pbc="F F F"
C       -0.16378213       1.42691044       1.55400000       0.29400471       0.08019780      -0.05609148
B       -0.97554647       1.18991891       3.01444729       0.00800755       0.00959465       0.00329327
B       -1.23582422      -0.55628810       3.08385166       0.00130640      -0.00509195       0.00370516
B        0.35241199      -1.33130601       3.06785218       0.00304231       0.00173715      -0.00640717
B        0.12070711       0.18758371       3.97494085      -0.00005522       0.02965500       0.00914595
B        0.76369834       1.50862646       2.97202884      -0.00989567       0.00703579      -0.00078460
C        1.28491105       0.76148119       1.56400000      -0.63425773      -0.41483116      -0.12954001
B       -1.42248902       0.29662489       1.54023333      -0.03150958       0.01015865      -0.00751366
B       -0.62003545      -1.29418068       1.55905967      -0.00446285      -0.00100939       0.01241534
B        1.13154635      -0.94050156       1.51482742       0.01208942      -0.00468490       0.04484228
B        1.57863364      -0.06174254       3.00637377       0.00018978      -0.00961194      -0.00508784
C        1.14300000       0.92400000      -1.55300000      -0.49958891       0.00640075       0.02201356
B        1.61140697       0.17911915      -2.99018113      -0.00019020       0.00913084       0.00297342
B        0.66972296      -1.31598298      -3.03433924      -0.00844956      -0.00287137      -0.00441023
B       -1.04252925      -0.87876572      -3.05851106      -0.00170029       0.00006450       0.00572202
B        0.13640316       0.11009214      -3.96470282       0.01360102       0.02166946      -0.00851915
B        0.49568253       1.54813680      -2.98291293       0.00425097       0.00119478       0.00358875
C       -0.40000000       1.32300000      -1.56800000       0.04964927      -0.13696279       0.02932526
B        1.33991669      -0.75040856      -1.49300140       0.03740624      -0.01563526       0.00762477
B       -0.30287326      -1.44644445      -1.52235574       0.00250094      -0.00271891      -0.01133125
B       -1.41453740      -0.04924598      -1.52803159      -0.01033138      -0.00083616      -0.03982892
B       -1.14371074       0.88337204      -3.02436284      -0.00580321      -0.00321271       0.00251865
Co       0.00000000       0.00000000       0.00000000       0.80943066       0.46912020       0.12259416
H       -0.24382972       2.39769853       1.08619291      -0.00228272      -0.02987849       0.02715027
H       -1.69012647       2.04549397       3.41203267      -0.00213341       0.00973713       0.00210064
H       -2.17398981      -1.01313250       3.64283269      -0.01516612       0.00786846       0.01375681
H        0.58686683      -2.35651798       3.61332997      -0.00581085       0.00664674       0.01357221
H        0.16343028       0.25336259       5.15721297      -0.00277570       0.00981433       0.02224864
H        1.25696734       2.53534474       3.29271831       0.00001477      -0.00457675      -0.00243492
H        2.09148730       1.28201988       1.07330917      -0.01973825      -0.00563277       0.02991599
H       -2.48238069       0.60675994       1.10854731       0.00864247      -0.00486344       0.04023853
H       -1.11739691      -2.31348322       1.21307893       0.00178389       0.00818711       0.03482385
H        2.00568756      -1.61556988       1.09711365       0.00511990      -0.00288023       0.03702850
H        2.69343879      -0.12104746       3.40013618      -0.00216630       0.00093064       0.00962771
H        1.81854563       1.61998025      -1.07907397      -0.01835284      -0.02882722      -0.03084250
H        2.71659126       0.34885387      -3.37867981       0.00353930       0.00615862      -0.00529341
H        1.09716723      -2.28619947      -3.56114900       0.01401138      -0.00265375      -0.01344667
H       -1.87352407      -1.51631083      -3.61195437       0.00588272       0.00016297      -0.01036478
H        0.16302321       0.16626624      -5.14794200       0.00327532       0.00517659      -0.02211555
H        0.77221389       2.64969049      -3.31516102      -0.00448221      -0.00284334       0.00109040
H       -0.68527226       2.26138028      -1.11740826       0.01014343      -0.01843267      -0.02757195
H        2.33666061      -1.20312991      -1.04173477      -0.00962417      -0.00368167      -0.04785207
H       -0.58252198      -2.53778840      -1.15309159       0.00615269       0.00447291      -0.03363198
H       -2.52157085       0.02977580      -1.12027591      -0.00274473      -0.00356116      -0.03102561
H       -2.01629410       1.56726209      -3.43911197      -0.00252266       0.00018275      -0.00722257
