45
Properties=species:S:1:pos:R:3:forces:R:3 charge=-1 spin=1 energy=-242.28506469726562 free_energy=-242.28506469726562 stress="-6.624004100785896e-08 1.0056405486125186e-08 -5.134127079031714e-08 1.0056405486125186e-08 -1.0033629394001764e-07 6.252724915611907e-08 -5.134127079031714e-08 6.252724915611907e-08 -1.9684306096223736e-07" pbc="F F F"
C        1.38767724       0.37047252       1.55400000       0.15813285       0.11283799       0.30590746
B        1.02775665       1.11965325       3.02624335      -0.00035436      -0.00064817      -0.00047993
B       -0.73888000       1.10510176       3.07993604      -0.00068229       0.00021333      -0.00239918
B       -1.25440665      -0.60414888       3.05587105      -0.00067024      -0.00016549      -0.00135222
B        0.20990365      -0.12920183       3.97135042       0.00055769       0.00056520       0.00094054
B        1.59357555      -0.54166661       3.02559283      -0.00180639      -0.00002493       0.00070430
C        0.94101597      -1.15988747       1.56400000       0.00019550      -0.09597590       0.04949059
B        0.07963259       1.43372706       1.54744778      -0.00167958       0.00290614       0.00431669
B       -1.37479366       0.38761853       1.58045313      -0.00284341       0.00157160       0.00719392
B       -0.72891132      -1.28424886       1.47826273       0.00475303      -0.00312328       0.00292891
B        0.20302314      -1.60166765       3.01393630       0.00373796       0.00177625      -0.00155747
C        1.14300000       0.92400000      -1.55300000       0.08664851      -0.00119844      -0.19386171
B        1.61841940       0.19574788      -2.99602660      -0.00079614       0.00194847       0.00117419
B        0.67490358      -1.29574416      -3.04227598      -0.00012442      -0.00063679       0.00166576
B       -1.05099700      -0.83753148      -3.07518801      -0.00158051      -0.00006641       0.00232357
B        0.14605906       0.14892048      -3.96858806      -0.00006701       0.00101948      -0.00103601
B        0.50466387       1.55071203      -3.02809171      -0.00053943      -0.00147832      -0.00051510
C       -0.40000000       1.32300000      -1.56800000      -0.14773038       0.32361537      -0.23593912
B        1.34110863      -0.74261334      -1.50134109       0.00012007      -0.00252380      -0.00226493
B       -0.30935244      -1.43736660      -1.57135763       0.00040868      -0.00289571      -0.00642401
B       -1.40585180      -0.01957531      -1.52021561      -0.00115925       0.00402243      -0.00452180
B       -1.13049362       0.92521763      -3.04530080       0.00257612       0.00171371       0.00211046
Co       0.00000000       0.00000000       0.00000000      -0.08976281      -0.33714285       0.07140042
H        2.33393025       0.63085373       1.07018729       0.00576600       0.00145068      -0.00008480
H        1.74756177       1.97646670       3.43696150      -0.00256790       0.00169770      -0.00133753
H       -1.34960019       1.94978908       3.66120797      -0.00217588      -0.00072880      -0.00279980
H       -2.24244612      -0.98735506       3.60569678      -0.00080658      -0.00019993      -0.00015920
H        0.22438920      -0.14371327       5.16121055      -0.00043286       0.00213120       0.00150904
H        2.68925260      -0.87209968       3.34177073      -0.00267574       0.00286409       0.00019971
H        1.57139252      -1.88575862       1.04406132       0.00339100      -0.00516124      -0.00207442
H        0.19443573       2.53241078       1.08563550       0.00018645       0.00384160       0.00418931
H       -2.45497085       0.70367604       1.17654346      -0.00367706       0.00230825       0.00353803
H       -1.23219467      -2.27042612       1.03060681      -0.00363679      -0.00092103       0.00009362
H        0.29776378      -2.72532626       3.40037096      -0.00016401       0.00301561       0.00063175
H        1.84945871       1.59526999      -1.05587391       0.00457315       0.00392943       0.00227816
H        2.73449125       0.34370539      -3.38698740      -0.00059929      -0.00244508       0.00004306
H        1.08720595      -2.26833300      -3.59709083      -0.00153828      -0.00194284       0.00205436
H       -1.87737065      -1.48435170      -3.64432058      -0.00123928      -0.00022589       0.00085331
H        0.16981648       0.15582329      -5.15828720       0.00000272      -0.00157318      -0.00174363
H        0.79791410       2.65579077      -3.34810692       0.00006642      -0.00344226      -0.00069895
H       -0.70006161       2.25659248      -1.08202247      -0.00282718       0.00503218       0.00214229
H        2.31680449      -1.21326800      -0.99488280       0.00247588      -0.00368634      -0.00418530
H       -0.60855278      -2.51812136      -1.15945780      -0.00130664      -0.00518608      -0.00551377
H       -2.52078699       0.07684325      -1.09973778      -0.00182163      -0.00507605       0.00036810
H       -2.02014598       1.60309591      -3.45769350       0.00167373      -0.00199120       0.00089127
