45
Properties=species:S:1:pos:R:3:forces:R:3 charge=-1 spin=1 energy=-54314.331536309895 free_energy=-54314.331536309895 stress="1.1803010702133179 -0.3109223246574402 0.24394069612026215 -0.3109223246574402 0.5948058366775513 -0.45035579800605774 0.24394069612026215 -0.45035579800605774 0.6644417643547058" pbc="F F F"
C        1.20527717       0.78115616       1.55400000       0.08286782      -0.17599581      -0.02331654
B        0.64245058       1.41128368       3.01688571      -0.00229954      -0.00138872       0.00270199
B       -1.03632193       0.86182039       3.10586727      -0.00025992      -0.00044154      -0.00155682
B       -1.01963401      -0.90753187       3.08858951       0.00286486      -0.00239895       0.00424250
B        0.24457444      -0.01550264       3.98455906       0.00056153      -0.00359235       0.00091268
B        1.70008861      -0.00403426       2.96721410      -0.00079940      -0.00093377       0.00150884
C        1.25338431      -0.81232861       1.56400000      -0.61847740       0.43118542      -0.19703771
B       -0.36906510       1.39982301       1.55743338      -0.00489269      -0.00109605       0.00011181
B       -1.43597033      -0.02833723       1.58962948       0.00023829       0.00072803      -0.00077387
B       -0.33134158      -1.43392317       1.52045599       0.00656898      -0.00310196      -0.00158509
B        0.66028289      -1.43584051       3.01212408       0.00258586      -0.00112595      -0.00157623
C        1.14300000       0.92400000      -1.55300000      -0.41592446      -0.02129794       0.09537628
B        1.63220914       0.20441464      -2.99587317      -0.00263553      -0.00191580      -0.00291464
B        0.68816113      -1.28760084      -3.08153851      -0.00177229       0.00010505       0.00078554
B       -1.02488548      -0.84701851      -3.10842633      -0.00245591       0.00412111      -0.00472329
B        0.16567670       0.15762472      -3.98679132      -0.00427760       0.00160041      -0.00112705
B        0.51300024       1.57184711      -2.97296690      -0.00228714       0.00011539      -0.00064803
C       -0.40000000       1.32300000      -1.56800000       0.10381942      -0.08566821       0.13639809
B        1.33487646      -0.74852024      -1.52352390      -0.00264147      -0.00533941       0.00033030
B       -0.30403220      -1.44226371      -1.58548741      -0.00036949       0.00028439       0.00138216
B       -1.40929988      -0.04334381      -1.55612589      -0.00152151       0.00561237       0.00050309
B       -1.12683238       0.91028564      -3.03993712      -0.00021412       0.00402249       0.00125379
Co       0.00000000       0.00000000       0.00000000       0.87974703      -0.13047656      -0.00804414
H        2.03594973       1.27979480       1.08041768       0.00091349       0.00254807       0.00324851
H        1.09647798       2.43302702       3.40672425      -0.00150133       0.00021047      -0.00056281
H       -1.85530075       1.50367800       3.67273368      -0.00183263      -0.00396073      -0.00042585
H       -1.82603984      -1.56825239       3.65108190      -0.00133358      -0.00509995      -0.00068839
H        0.33528169      -0.02074807       5.16688358      -0.00058712      -0.00064850       0.00073263
H        2.84098829       0.01177657       3.27707468      -0.00059723       0.00140945      -0.00107383
H        2.07268178      -1.29256474       1.06039053       0.00273676       0.00046412       0.00033049
H       -0.57564694       2.48568250       1.11450093      -0.00419972      -0.00248161       0.00581772
H       -2.57411472      -0.04097580       1.25773306       0.00043289      -0.00700630       0.00012541
H       -0.54063925      -2.51905583       1.10180648       0.00739665      -0.00555327      -0.00150296
H        1.10907099      -2.45666278       3.40783615       0.00178842       0.00071800      -0.00063960
H        1.81135509       1.61373766      -1.06409850       0.00263920      -0.00005600      -0.00258240
H        2.74094424       0.38771341      -3.36911798      -0.00051056      -0.00193892       0.00032443
H        1.12527939      -2.24634357      -3.62357611      -0.00490488      -0.00067192      -0.00026540
H       -1.84718983      -1.47481386      -3.68523269      -0.00601822       0.00078191       0.00020154
H        0.20310010       0.23877350      -5.16920976      -0.00129324       0.00022218      -0.00075150
H        0.79160401       2.67885073      -3.28051698       0.00127782      -0.00081033       0.00147281
H       -0.67859820       2.25081253      -1.09838990       0.00090632       0.00179098      -0.00005926
H        2.32485150      -1.21748928      -1.05859775      -0.00307323      -0.00587908      -0.00736989
H       -0.58965943      -2.54118224      -1.24693116      -0.00834162       0.00235973      -0.00125833
H       -2.52060128       0.02948893      -1.15913133      -0.00299405       0.00828510       0.00157250
H       -1.99418308       1.60134336      -3.45219879       0.00067103       0.00231532       0.00115026
