45
Properties=species:S:1:pos:R:3:forces:R:3 charge=-1 spin=1 energy=-54314.38188077706 free_energy=-54314.38188077706 stress="1.3933049440383911 0.35323888063430786 0.27210214734077454 0.35323888063430786 0.17455893754959106 0.03430265560746193 0.27210214734077454 0.03430265560746193 0.28732046484947205" pbc="F F F"
C        0.10649526       1.43232565       1.55400000       0.25985035      -0.05110021      -0.06958973
B       -0.73671080       1.35089644       3.01291093      -0.00882006       0.00367942       0.00164896
B       -1.31849674      -0.31871732       3.07958935      -0.00539901       0.01277908       0.00996798
B        0.09954492      -1.37708410       3.05991787      -0.00650967       0.00439316       0.02188158
B        0.15471065       0.16082489       3.97003874      -0.00464347      -0.00963642       0.01154429
B        1.03132985       1.33829931       2.96945137       0.00750119      -0.00096845       0.00479558
C        1.40483909       0.50722494       1.56400000      -0.72065264      -0.28348982      -0.21587326
B       -1.34267127       0.55776181       1.53738164       0.03255456      -0.01956166       0.02083945
B       -0.85004045      -1.15705580       1.55371817      -0.00145824       0.00499999       0.00594080
B        0.93953844      -1.13762281       1.50715186      -0.01628162       0.01550530      -0.00579769
B        1.54037372      -0.35856127       3.00051877       0.00030695       0.00864671       0.01581480
C        1.14300000       0.92400000      -1.55300000      -0.53015816      -0.07202154       0.06076396
B        1.61214551       0.17695460      -2.98705088       0.00753938      -0.00177657      -0.00783210
B        0.66749883      -1.31884756      -3.02955672       0.01363587       0.00372908      -0.00980366
B       -1.04614953      -0.87848595      -3.05205502       0.00632941      -0.00045466      -0.01875205
B        0.13601055       0.11041460      -3.95992706      -0.00448926      -0.00946350      -0.01132312
B        0.49623908       1.54692986      -2.97996555      -0.00222864       0.00438593      -0.00698217
C       -0.40000000       1.32300000      -1.56800000       0.06023603      -0.14818892       0.11041351
B        1.34064684      -0.75126220      -1.48868169      -0.04099753       0.01343993      -0.02266135
B       -0.30587272      -1.44632838      -1.51781561       0.00679994       0.00007148      -0.00509324
B       -1.41807328      -0.04684630      -1.52257692       0.01938675      -0.00236096       0.00666410
B       -1.14540698       0.88381312      -3.01995514       0.00362425       0.00182868      -0.01180052
Co       0.00000000       0.00000000       0.00000000       0.89573562       0.47442010       0.10938288
H        0.20926523       2.39829551       1.08402193       0.00449966       0.03571553      -0.01586719
H       -1.27425971       2.32556788       3.41720876      -0.00473507      -0.00150528      -0.01245404
H       -2.32359900      -0.59050118       3.64493470       0.00067396       0.00490315      -0.00750811
H        0.13908799      -2.42427742       3.61274701      -0.00955863      -0.00000988      -0.00174940
H        0.21063190       0.21704885       5.15311871      -0.00626807       0.00191457       0.00198994
H        1.70884723       2.25227764       3.29301019       0.00208217       0.00753040      -0.00016356
H        2.28814078       0.86646997       1.06385368       0.03713551       0.01022581      -0.00446860
H       -2.32115980       1.05624559       1.09032435      -0.02840579       0.01963296       0.01545509
H       -1.52487745      -2.06383659       1.19539430      -0.01569976      -0.00290199       0.02597496
H        1.67446927      -1.95459696       1.07230670      -0.00820388      -0.02256368       0.03077083
H        2.62342715      -0.61948651       3.40118022      -0.00359486      -0.00936580      -0.00507222
H        1.81630543       1.61707100      -1.07527626       0.02817171       0.03102960       0.01592383
H        2.71487946       0.35026344      -3.38262456       0.00118651      -0.00376027       0.01052702
H        1.09469731      -2.28680374      -3.56288936       0.00216949       0.00409346       0.00634333
H       -1.87544622      -1.51262449      -3.61215238       0.00508157      -0.00806824       0.00293126
H        0.16145754       0.16779245      -5.14401358       0.00377891      -0.00403020      -0.00122455
H        0.77135380       2.64745566      -3.31509964       0.00299513       0.00525429      -0.00002529
H       -0.68201322       2.25691302      -1.10965749      -0.01547752       0.03509966       0.00580999
H        2.32931149      -1.20334436      -1.01895590       0.03708565      -0.01050793      -0.01760213
H       -0.58832004      -2.53277642      -1.13624804       0.01030864      -0.01382893      -0.02467067
H       -2.52012280       0.03917119      -1.10099561      -0.01019164      -0.01800817      -0.02582351
H       -2.01305793       1.57057142      -3.44103442      -0.00489578      -0.00970536       0.00675393
