45
Properties=species:S:1:pos:R:3:forces:R:3 charge=-1 spin=1 energy=-54314.48733236092 free_energy=-54314.48733236092 stress="0.6988818645477295 0.3844779133796692 -0.5544584393501282 0.3844779133796692 1.1082468032836914 -1.1690654754638672 -0.5544584393501282 -1.1690654754638672 1.4695730209350586" pbc="F F F"
C        0.90286267      -1.11702148       1.55400000      -0.17737909       0.03477896      -0.17362043
B        1.46121447      -0.47779905       3.01662000       0.00038236       0.00049980      -0.00112890
B        0.72569562       1.12954633       3.11249049       0.00134838      -0.00195118       0.00166547
B       -1.03169871       0.91445194       3.10118051       0.00098566      -0.00153042       0.00425190
B       -0.00041489      -0.24452548       3.98802106      -0.00059380      -0.00296135       0.00082443
B        0.17512634      -1.68913115       2.96504629      -0.00037415      -0.00136505      -0.00175822
C       -0.67686425      -1.33142960       1.56400000       0.21787770       0.56847513      -0.34052733
B        1.33501609       0.52213559       1.55787145      -0.00310741      -0.00275717      -0.00237540
B       -0.20197079       1.41856575       1.60572184       0.00213078       0.00221622       0.00216745
B       -1.47645411       0.16980842       1.53970211      -0.00613045       0.00371976       0.00317520
B       -1.36650709      -0.81752155       3.01626585       0.00037884      -0.00092758      -0.00091427
C        1.14300000       0.92400000      -1.55300000      -0.32487848      -0.08053841       0.44110391
B        1.63554064       0.17789658      -2.97827188       0.00000416       0.00038678       0.00141395
B        0.68767921      -1.31236299      -3.06115336       0.00187519       0.00291148      -0.00224923
B       -1.02398962      -0.86236483      -3.11144372       0.00158112       0.00205735      -0.00538701
B        0.17776433       0.12962828      -3.98177487      -0.00017461       0.00420282      -0.00214384
B        0.52178204       1.55404794      -2.97486649      -0.00075490       0.00246076       0.00123761
C       -0.40000000       1.32300000      -1.56800000       0.01089933      -0.14356653       0.06032376
B        1.32702387      -0.75411679      -1.49624183      -0.00357380       0.00336182       0.00428720
B       -0.31206176      -1.43844072      -1.58132423       0.00179283      -0.00262082      -0.00213068
B       -1.41612751      -0.03885335      -1.58100579      -0.00618092      -0.00282348      -0.00366216
B       -1.11874584       0.90151757      -3.05232261       0.00084016       0.00192082       0.00003363
Co       0.00000000       0.00000000       0.00000000       0.26386106      -0.39492390       0.02237945
H        1.48915355      -1.86992885       1.05461838      -0.00468019       0.00666404      -0.00047277
H        2.52733604      -0.80782483       3.40984644      -0.00019063      -0.00234523       0.00048126
H        1.27553029       2.01341411       3.67895534       0.00144150      -0.00099247       0.00088171
H       -1.78014658       1.63961602       3.66585175      -0.00010329       0.00078055       0.00150979
H        0.00764090      -0.33857309       5.17014925       0.00110080      -0.00070619       0.00171285
H        0.31706481      -2.81988925       3.27624172       0.00035359      -0.00145876       0.00009918
H       -1.06122752      -2.19504325       1.04864604       0.00267137       0.00475287       0.00107714
H        2.38529852       0.85892693       1.11292046       0.00352319       0.00108644      -0.00223358
H       -0.34203303       2.54510908       1.24096499       0.00189790      -0.00642532       0.00111980
H       -2.57414345       0.26026000       1.10880164       0.00245833       0.00020337      -0.00163376
H       -2.32751563      -1.38227094       3.41309785       0.00138920       0.00002148       0.00172481
H        1.80864213       1.59576772      -1.03797238      -0.00499221      -0.00448221       0.00035837
H        2.74653846       0.34950165      -3.34751827      -0.00040458       0.00404970      -0.00188767
H        1.12718791      -2.27703406      -3.59092792       0.00123844       0.00253180      -0.00346266
H       -1.84742797      -1.49046244      -3.68780305      -0.00037428       0.00054355      -0.00282075
H        0.22695730       0.20143065      -5.16436058       0.00051714       0.00315118      -0.00326447
H        0.80881185       2.65409631      -3.29547461       0.00040256       0.00267687       0.00073068
H       -0.67594808       2.25250825      -1.09827775       0.00112299      -0.00330357      -0.00038439
H        2.30352191      -1.22610908      -1.00894273       0.00418177      -0.00263180       0.00176143
H       -0.60586981      -2.52873360      -1.19849504       0.00288177       0.00485857      -0.00183507
H       -2.52721663       0.03416277      -1.18342280       0.00345898      -0.00094913       0.00077381
H       -1.97840969       1.59243877      -3.48048633       0.00129549       0.00094818      -0.00120226
