45
Properties=species:S:1:pos:R:3:forces:R:3 charge=-1 spin=1 energy=-242.28712463378906 free_energy=-242.28712463378906 stress="-5.663486390972139e-08 1.0565734065437482e-08 -4.9134424529029275e-08 1.0565734065437482e-08 -9.269862033534082e-08 6.031151400520685e-08 -4.9134424529029275e-08 6.031151400520685e-08 -2.018442017970301e-07" pbc="F F F"
C        1.35845407       0.46636954       1.55400000       0.14638069       0.13008744       0.30717623
B        0.94612108       1.18918883       3.02619211       0.00036017      -0.00065927      -0.00058567
B       -0.81494374       1.05093255       3.08018040      -0.00015952       0.00083514      -0.00142781
B       -1.20940730      -0.68997025       3.05630116      -0.00092734       0.00061992      -0.00045019
B        0.21770956      -0.11332140       3.97187525       0.00078929       0.00060606       0.00047079
B        1.62680610      -0.42811627       3.02591866      -0.00180913      -0.00067158      -0.00027833
C        1.01963336      -1.09142009       1.56400000      -0.00081658      -0.09593156       0.06319635
B       -0.02076651       1.43589342       1.54747691      -0.00158927       0.00131354       0.00260276
B       -1.39841187       0.29097335       1.58005189      -0.00129974       0.00049758       0.00275432
B       -0.63819289      -1.33103142       1.47840450       0.00468262      -0.00081432       0.00093191
B        0.31393283      -1.58268826       3.01456665       0.00466590       0.00189636      -0.00246371
C        1.14300000       0.92400000      -1.55300000       0.09162595      -0.01053053      -0.19731325
B        1.61803763       0.19510298      -2.99647246      -0.00082606       0.00313126       0.00113839
B        0.67429170      -1.29603336      -3.04319879      -0.00003757      -0.00057711       0.00024723
B       -1.05137129      -0.83755885      -3.07551051      -0.00159249      -0.00012729       0.00118265
B        0.14583997       0.14822700      -3.96905168      -0.00078889       0.00209444      -0.00103224
B        0.50476215       1.55003607      -3.02839859      -0.00131875      -0.00087130       0.00040953
C       -0.40000000       1.32300000      -1.56800000      -0.15188205       0.32361403      -0.23333718
B        1.34094730      -0.74300117      -1.50238672      -0.00016302      -0.00072324      -0.00294593
B       -0.30910021      -1.43746959      -1.57125934       0.00058640      -0.00115848      -0.00273231
B       -1.40536978      -0.02110590      -1.51984391       0.00095895       0.00267580      -0.00118940
B       -1.13043129       0.92475429      -3.04508159       0.00251908       0.00299546       0.00277952
Co       0.00000000       0.00000000       0.00000000      -0.07903452      -0.34756476       0.07101114
H        2.28514618       0.79294735       1.07226668      -0.00126269      -0.00001347      -0.00003010
H        1.60391553       2.09474901       3.43604771      -0.00160436       0.00095393      -0.00036670
H       -1.48427970       1.85089242       3.66005045      -0.00130122      -0.00016816      -0.00089052
H       -2.16826874      -1.14167660       3.60563782      -0.00124934       0.00014076       0.00058362
H        0.23331537      -0.12608904       5.16174387      -0.00046891       0.00144144       0.00091679
H        2.74289542      -0.68064408       3.34246782      -0.00314230       0.00201549      -0.00014222
H        1.69911317      -1.77343793       1.04693369       0.00140155      -0.00253512      -0.00055856
H        0.01582049       2.54182802       1.09030759      -0.00054930       0.00138409       0.00135746
H       -2.49912499       0.53239537       1.18041017      -0.00138190       0.00189460       0.00185180
H       -1.07363372      -2.35008141       1.03382701      -0.00217116       0.00012904       0.00196971
H        0.48747394      -2.69671414       3.40147194      -0.00085030       0.00337037       0.00043401
H        1.85056595       1.59526843      -1.05723420      -0.00045303      -0.00111490      -0.00049816
H        2.73428731       0.34246237      -3.38692054      -0.00105700      -0.00113693      -0.00075068
H        1.08615686      -2.26968138      -3.59630337      -0.00107102      -0.00131848      -0.00087766
H       -1.87832438      -1.48418662      -3.64387256      -0.00120020      -0.00057297      -0.00040853
H        0.16966522       0.15470398      -5.15875085      -0.00048536      -0.00029978      -0.00158983
H        0.79838497       2.65481937      -3.34903935      -0.00058260      -0.00313774       0.00020623
H       -0.70055219       2.25636148      -1.08157017      -0.00023599      -0.00190180      -0.00002240
H        2.31946771      -1.21620106      -1.00446464       0.00428241      -0.00186151      -0.00802443
H       -0.60809829      -2.52120341      -1.16764794       0.00113644      -0.00339049      -0.00504034
H       -2.52043117       0.07254958      -1.09939749       0.00077583      -0.00287106       0.00081556
H       -2.01980222       1.60284578      -3.45760780       0.00114602      -0.00174491       0.00091976
