45
Properties=species:S:1:pos:R:3:forces:R:3 charge=-1 spin=1 energy=-54314.59607793587 free_energy=-54314.59607793587 stress="-0.5400111675262451 0.11318613588809967 6.003084490657784e-05 0.11318613588809967 -0.2857683598995209 0.1827583611011505 6.003084490657784e-05 0.1827583611011505 0.6585937738418579" pbc="F F F"
C        1.46002325      -0.01447485       1.49084795      -0.00615837      -0.00075462      -0.01258361
B        1.38735175       0.79007213       2.97731622       0.00331642      -0.00708319       0.00838573
B       -0.30762241       1.27065217       3.13243240      -0.00306475      -0.00776431       0.00541122
B       -1.29186748      -0.20388376       3.10974402      -0.00961075      -0.00282673       0.00431956
B        0.28583884      -0.19831334       3.95036800      -0.00163632      -0.01111724       0.00514850
B        1.46152608      -0.97239821       2.87213803      -0.00454833      -0.00852252      -0.00656574
C        0.58362372      -1.33093656       1.46315526       0.00074410      -0.01449395      -0.01000626
B        0.49937195       1.37245430       1.55666721      -0.00928979      -0.01094026       0.00026770
B       -1.16583018       0.78545783       1.63600000      -0.27540013       0.13954215      -0.15347196
B       -1.07910262      -0.98683586       1.51369934      -0.00685987       0.00995766       0.00199281
B       -0.19882896      -1.57853404       2.94616717       0.01116969      -0.00425605       0.01717614
C        1.06167130       0.98193022      -1.48522725      -0.00721845      -0.00367808       0.00528133
B        1.58858127       0.32335576      -2.95334399      -0.00572331       0.01111861      -0.00409199
B        0.70297202      -1.20209614      -3.09896770      -0.00889166       0.00750329      -0.00234885
B       -1.02864066      -0.82197948      -3.10670814      -0.01060818      -0.00431801      -0.00328604
B        0.12551075       0.25521807      -3.94735717      -0.01287052       0.00858121      -0.00444248
B        0.41919242       1.64661735      -2.88811193      -0.00910716       0.00443548       0.00651707
C       -0.48535752       1.32461500      -1.48543770      -0.00615298       0.00758862       0.00707776
B        1.32832048      -0.68840153      -1.52338330      -0.01411898       0.00341030      -0.00131222
B       -0.27500000      -1.43300000      -1.61500000      -0.07933612      -0.02080124       0.15899473
B       -1.44061337      -0.08449855      -1.52664428       0.00140693      -0.01126991      -0.00105208
B       -1.19587481       0.92907482      -2.97333958       0.00123498       0.01253881      -0.01694510
Co       0.00000000       0.00000000       0.00000000       0.49840930      -0.09606770      -0.00258955
H        2.39847414      -0.05609650       0.96527149       0.04084576       0.00669750      -0.01502873
H        2.34843474       1.36943359       3.35554362       0.00004050      -0.00509564      -0.00737943
H       -0.60786482       2.24864948       3.73066272      -0.00233126      -0.00273943      -0.00588349
H       -2.30943062      -0.30992133       3.70682727      -0.01220894      -0.00256014      -0.00296257
H        0.39970176      -0.28997055       5.12698658      -0.00877165      -0.00604309       0.00383915
H        2.41713020      -1.62008763       3.12706720      -0.01420840      -0.00078744      -0.00606653
H        0.98531447      -2.18017241       0.93683325       0.00469611      -0.02358529      -0.02058117
H        0.90040421       2.39810705       1.10338360       0.00438376       0.01478132      -0.00680084
H       -2.11316106       1.42484648       1.29939496       0.01676927      -0.00892522       0.00482230
H       -1.86669296      -1.75349909       1.07563791      -0.00822862      -0.00262959      -0.01575039
H       -0.37122505      -2.68818013       3.31788613      -0.01018900      -0.01165096      -0.01054891
H        1.70407009       1.67006977      -0.96260707       0.02749467       0.02390419       0.01183913
H        2.68980634       0.56503025      -3.31605344      -0.00838431       0.00606528       0.00205785
H        1.17840485      -2.12212263      -3.67578679      -0.00811475       0.00438048       0.00685318
H       -1.82687833      -1.45690361      -3.70929473      -0.01389903      -0.00606271       0.00682102
H        0.16345189       0.38160235      -5.12563647      -0.01860469      -0.00045010      -0.00404333
H        0.66389779       2.77065100      -3.16064043      -0.01570903      -0.00647240       0.00424026
H       -0.79261925       2.22696369      -0.98364058      -0.01338109       0.01472973       0.01759222
H        2.32046427      -1.14142939      -1.04618620       0.01928988      -0.00965934       0.00369972
H       -0.51766196      -2.54204615      -1.25674298       0.00637629       0.01846464      -0.00330177
H       -2.54651244      -0.07034155      -1.10586643      -0.00981543      -0.00492502       0.02086983
H       -2.08248725       1.60162516      -3.37394841      -0.02173584       0.00178068       0.01383536
