45
Properties=species:S:1:pos:R:3:forces:R:3 charge=-1 spin=1 energy=-242.29737854003906 free_energy=-242.29737854003906 stress="-7.339865248923161e-08 1.8270656099161897e-08 -4.873586689768672e-08 1.8270656099161897e-08 -8.303314302793297e-08 9.471794726323424e-08 -4.873586689768672e-08 9.471794726323424e-08 -1.6733397956159024e-07" pbc="F F F"
C        1.35760217      -0.46884362       1.55400000       0.20605770      -0.01580477       0.32509461
B        1.47882902       0.34750312       3.03433726       0.00328854       0.00012806      -0.00150267
B        0.00656896       1.32556799       3.08891961       0.00100453       0.00354473       0.00093117
B       -1.37631666       0.19919572       3.06079412      -0.00228119       0.00051385       0.00031945
B        0.10574595      -0.23119817       3.97596844      -0.00064360      -0.00073307       0.00048952
B        1.02041455      -1.34485204       3.02637369      -0.00069073      -0.00141109      -0.00118027
C        0.13153675      -1.48779975       1.56400000      -0.07851708      -0.06978589       0.00000167
B        0.86969147       1.14298773       1.55412196       0.00384900       0.00157464       0.00000620
B       -0.91919241       1.09385076       1.59320427       0.00265494      -0.00016707       0.00020608
B       -1.32272990      -0.65528697       1.49089150      -0.00148465      -0.00005290      -0.00673087
B       -0.72427478      -1.44499716       3.01474012      -0.00021186      -0.00029477      -0.00207730
C        1.14300000       0.92400000      -1.55300000       0.10998473       0.03037769      -0.18123953
B        1.61857503       0.20192556      -3.00303300       0.00276568       0.00194632       0.00271685
B        0.67523599      -1.29206035      -3.05161549       0.00304016      -0.00312832      -0.00094914
B       -1.04797523      -0.83585007      -3.08240625      -0.00240406      -0.00088924       0.00001919
B        0.15026313       0.15707444      -3.97400595      -0.00083637       0.00114828      -0.00000459
B        0.50802078       1.55602891      -3.02912363      -0.00134175       0.00136809       0.00219860
C       -0.40000000       1.32300000      -1.56800000      -0.17532930       0.29155606      -0.21085814
B        1.34057618      -0.74179744      -1.50646233       0.00431368       0.00054150      -0.00179341
B       -0.30457742      -1.43872781      -1.58412546       0.00306673       0.00403729      -0.00243722
B       -1.40551139      -0.02135883      -1.53744210      -0.00262800      -0.00042526       0.00826752
B       -1.12617284       0.93042622      -3.04849330      -0.00111914       0.00133762       0.00280023
Co       0.00000000       0.00000000       0.00000000      -0.07505262      -0.23584394       0.06689470
H        2.28700594      -0.78075376       1.07078044       0.00340241      -0.00255796      -0.00141470
H        2.55525386       0.65750067       3.44236104      -0.00223942      -0.00176363       0.00035468
H       -0.02827343       2.36687915       3.67102668       0.00166466      -0.00071709      -0.00021704
H       -2.40896718       0.42980754       3.61396972       0.00052895       0.00203088      -0.00078571
H        0.10971285      -0.25378434       5.16608921      -0.00137974       0.00000745       0.00033802
H        1.74605124      -2.23124186       3.33885219      -0.00237952       0.00000548       0.00063087
H        0.24014828      -2.43853468       1.03464542      -0.00041672       0.00135544       0.00809939
H        1.59569471       1.99090112       1.12275291       0.00106606      -0.00232610      -0.00411553
H       -1.62240495       1.96565923       1.17056849       0.00278926       0.00452890      -0.00203488
H       -2.29382770      -1.18131130       1.03389405       0.00215126       0.00515570      -0.00439943
H       -1.27061745      -2.43183627       3.40069435      -0.00212516       0.00172497      -0.00137788
H        1.84711423       1.59164985      -1.04885274      -0.00109038       0.00259720      -0.00009748
H        2.73649905       0.34763148      -3.39003284      -0.00296247       0.00062368      -0.00078590
H        1.08746214      -2.26452935      -3.60674005       0.00108447       0.00075148       0.00013605
H       -1.87501461      -1.47756466      -3.65649135       0.00127889      -0.00203077       0.00179517
H        0.17369720       0.16625408      -5.16400833      -0.00165391      -0.00067333      -0.00073747
H        0.80318269       2.66195112      -3.34485038      -0.00218420      -0.00145620      -0.00046076
H       -0.70663128       2.25259447      -1.07722516      -0.00100920      -0.00515628       0.00023835
H        2.33520094      -1.21244273      -1.03944041       0.00134522       0.00102625       0.00049106
H       -0.58915736      -2.51321284      -1.14249402       0.00097227      -0.00560869      -0.00179791
H       -2.52264202       0.06346633      -1.11889483       0.00538873      -0.00440860       0.00411167
H       -2.01332439       1.61218850      -3.46005518      -0.00171696      -0.00264665       0.00085732
