45
Properties=species:S:1:pos:R:3:forces:R:3 charge=-1 spin=1 energy=-242.33065795898438 free_energy=-242.33065795898438 stress="3.03722131889117e-08 -9.139607293207064e-09 -2.0034139680547014e-08 -9.139607293207064e-09 3.5504761797255924e-08 4.586119572991265e-08 -2.0034139680547014e-08 4.586119572991265e-08 6.391208984268815e-08" pbc="F F F"
C        1.29409588      -0.71955832       1.59166641      -0.00161137      -0.00289682       0.00993562
B        1.55905133       0.06671448       3.05027164      -0.00950017       0.00783259       0.00305760
B        0.26831087       1.27937089       3.10961335      -0.00049534       0.00284450       0.00700115
B       -1.28657632       0.40490551       3.10668828       0.00420728      -0.00330129       0.00053678
B        0.11336382      -0.27238841       4.00175567      -0.00345117       0.00072470       0.00163272
B        0.81723388      -1.52340172       3.03755880      -0.00623267      -0.00361558      -0.01242651
C       -0.10573791      -1.50448461       1.58021358       0.02312785      -0.00336510       0.02388284
B        1.06284040       0.94745495       1.56313520      -0.01448348      -0.01579255      -0.01452677
B       -0.72044301       1.20708984       1.63600000       0.11345647       0.01301467      -0.11019652
B       -1.39159758      -0.43790105       1.52301343       0.02077699       0.00236067      -0.03166093
B       -0.92130606      -1.32361984       3.04279631       0.00193669      -0.00830489      -0.00938258
C        1.13071739       0.97042203      -1.58285830      -0.00173217       0.00582162      -0.01128468
B        1.62390074       0.25151464      -3.01981326      -0.00416545      -0.00206478       0.00507473
B        0.70430969      -1.25798375      -3.07051094       0.00554976      -0.00123911      -0.00615546
B       -1.02564691      -0.82693863      -3.10629868       0.00629415       0.00223485      -0.00202423
B        0.15987954       0.18201997      -3.99963303       0.00158975      -0.00325069       0.00035219
B        0.49479373       1.59112165      -3.05604092      -0.00708890       0.00192537       0.01584408
C       -0.42535787       1.36209771      -1.61452372       0.01287927       0.00666285      -0.02608384
B        1.34333555      -0.69308296      -1.51200789      -0.01500368       0.01610373      -0.00140043
B       -0.27500000      -1.43300000      -1.61500000      -0.02299996       0.13314843       0.08247107
B       -1.38803083      -0.00968088      -1.56193050       0.02090496       0.00446136       0.03510769
B       -1.13332885       0.94153440      -3.08171203      -0.00102885       0.00375059       0.00868976
Co       0.00000000       0.00000000       0.00000000      -0.05300988      -0.14526197       0.02600864
H        2.13956556      -1.16976113       1.06639459       0.00928558      -0.01181041       0.04503327
H        2.67470896       0.20019470       3.44974353      -0.00653550      -0.00138594       0.00579448
H        0.42889648       2.31302256       3.68402693      -0.00804510       0.00302538       0.00777421
H       -2.25309689       0.80703675       3.68171638      -0.00310327      -0.00923648      -0.00930539
H        0.12810493      -0.29910672       5.19203337      -0.00277468      -0.00062824       0.00018798
H        1.37652298      -2.52579696       3.34363855      -0.00454545       0.00685859       0.00085366
H       -0.15924292      -2.45964857       1.05104076      -0.00538754       0.01538028      -0.00944162
H        1.91908018       1.65724025       1.12265104      -0.00713927       0.01240592       0.00689995
H       -1.26637397       2.19235931       1.22857541       0.00769991      -0.01401801      -0.00889084
H       -2.44541122      -0.79237006       1.08718732      -0.01006373      -0.01291216      -0.01973719
H       -1.62227909      -2.20537623       3.43363847      -0.00301953      -0.00334552      -0.00381291
H        1.82004079       1.63618196      -1.05757875      -0.00649126       0.01629541      -0.02437364
H        2.74330045       0.40478409      -3.40098003      -0.00626263       0.00752871       0.00286525
H        1.14218618      -2.21932937      -3.62548105       0.00105179      -0.00504476      -0.00202429
H       -1.84297391      -1.47895361      -3.68337969       0.00166848       0.00213797       0.00593302
H        0.18365022       0.19156573      -5.19000209       0.00540215      -0.00458194       0.00154714
H        0.78128301       2.69808244      -3.37810118      -0.00774323      -0.00641733       0.00095880
H       -0.74043356       2.28251984      -1.11409087      -0.00992393      -0.01325284       0.00308828
H        2.34575462      -1.13960833      -1.03744106       0.00135671      -0.00554959      -0.02047262
H       -0.55983058      -2.51213778      -1.18306496       0.00361872       0.01069971       0.00818210
H       -2.50777166       0.05613725      -1.15133869      -0.01648661       0.00587799       0.01762823
H       -2.03216501       1.60207845      -3.50311131      -0.00248143      -0.00381979      -0.00314106
