45
Properties=species:S:1:pos:R:3:forces:R:3 charge=-1 spin=1 energy=-54314.52087117928 free_energy=-54314.52087117928 stress="0.9553551077842712 -0.1632511019706726 0.25423234701156616 -0.1632511019706726 1.1947718858718872 -1.2725917100906372 0.25423234701156616 -1.2725917100906372 1.7889509201049805" pbc="F F F"
C        1.43437873       0.07386249       1.55400000      -0.17341764      -0.09769357      -0.04843313
B        1.23739462       0.90541236       3.01454224       0.00014680       0.00267663      -0.00140642
B       -0.49565692       1.26314638       3.09162274       0.00209632       0.00017583      -0.00315224
B       -1.36468599      -0.28236454       3.06454268       0.00232947       0.00149931       0.00064902
B        0.17082493      -0.13631428       3.97208358       0.00406822       0.00024982      -0.00168842
B        1.45364615      -0.84853028       2.96814658       0.00026775      -0.00155006      -0.00076753
C        0.67929835      -1.33018937       1.56400000      -0.36602741       0.62297761      -0.50373429
B        0.36647424       1.39278008       1.54882245       0.00574321      -0.00238112      -0.00317004
B       -1.26977616       0.69032042       1.57432471       0.00139020      -0.00085774      -0.00468379
B       -1.01433896      -1.08023910       1.49911051      -0.00267942       0.00770979      -0.00086393
B       -0.16511186      -1.57596688       2.99499760      -0.00025453       0.00051976       0.00069798
C        1.14300000       0.92400000      -1.55300000      -0.39560223      -0.16342127       0.24346358
B        1.62608898       0.17856030      -2.98552981       0.00172247      -0.00158079       0.00033885
B        0.67631348      -1.31306202      -3.05811772       0.00111567       0.00111713       0.00289236
B       -1.03945388      -0.86795097      -3.08486903       0.00177256       0.00064052       0.00007165
B        0.15426057       0.12607839      -3.97249558       0.00325340       0.00226603       0.00171000
B        0.51091594       1.55182761      -2.97475558      -0.00117878       0.00091722       0.00146573
C       -0.40000000       1.32300000      -1.56800000       0.02876602      -0.13309970       0.32751572
B        1.32538433      -0.75544382      -1.50413374       0.00166899       0.00705603       0.00258076
B       -0.31139764      -1.44862453      -1.56461458      -0.00082694       0.00139126       0.00277586
B       -1.41835836      -0.04762916      -1.54164581       0.00417868      -0.00601817       0.00476091
B       -1.13395005       0.89403107      -3.02902366       0.00006064      -0.00150116      -0.00115182
Co       0.00000000       0.00000000       0.00000000       0.85835117      -0.24706356      -0.01668722
H        2.39555710       0.09484724       1.06563686       0.00752119      -0.00430952      -0.00201835
H        2.13235700       1.56708291       3.41861677       0.00048587      -0.00002899       0.00003808
H       -0.89018270       2.22732926       3.65694332       0.00117556      -0.00111323      -0.00028198
H       -2.39571523      -0.45735958       3.62208812       0.00142580       0.00036336      -0.00087450
H        0.23627108      -0.18671710       5.15517961       0.00038144       0.00091897      -0.00189276
H        2.44475296      -1.40313251       3.29543642       0.00000051      -0.00165952       0.00062484
H        1.15019252      -2.14827870       1.04519465      -0.00091983      -0.00046969       0.00496551
H        0.72001036       2.43484979       1.08899834       0.00177097      -0.00019934      -0.00117404
H       -2.25112094       1.24716233       1.19923653       0.00343290      -0.00175875       0.00524820
H       -1.72699254      -1.91193180       1.04957699       0.00017216       0.00350788       0.00738769
H       -0.28473813      -2.68389507       3.39275561      -0.00028865      -0.00051357       0.00213752
H        1.80730842       1.60587881      -1.04711005       0.00257113       0.00692699      -0.00024742
H        2.73287287       0.35389195      -3.36808947       0.00050337      -0.00037004      -0.00050068
H        1.11015494      -2.27693993      -3.59441436       0.00014220       0.00111045       0.00029927
H       -1.86545564      -1.49544888      -3.65787368       0.00108372       0.00038890       0.00054072
H        0.18886839       0.19692551      -5.15581902       0.00109485      -0.00094787       0.00190629
H        0.78975653       2.65275750      -3.30177294      -0.00151584       0.00022803      -0.00101746
H       -0.67428313       2.25009908      -1.09117218       0.00014179       0.00023484      -0.00429780
H        2.30200642      -1.22785460      -1.00951786       0.00089253       0.00252031       0.00156503
H       -0.59259179      -2.53663827      -1.17705872       0.00163314       0.00381428      -0.00682894
H       -2.52202423       0.03052824      -1.12047397       0.00179011      -0.00185441      -0.00580380
H       -1.99804123       1.58411326      -3.44967880      -0.00043941      -0.00081886      -0.00295888
