45
Properties=species:S:1:pos:R:3:forces:R:3 charge=-1 spin=1 energy=-54314.55839444893 free_energy=-54314.55839444893 stress="0.8772316575050354 0.6086996793746948 -0.8429725766181946 0.6086996793746948 0.9584627747535706 -1.4297046661376953 -0.8429725766181946 -1.4297046661376953 2.1253674030303955" pbc="F F F"
C        0.51349481      -1.34135047       1.55400000      -0.08523913       0.24901831      -0.19103158
B        1.23093227      -0.89406085       3.01928756      -0.00562884      -0.00511008       0.00984688
B        1.01035865       0.86099976       3.11646382       0.00692225      -0.00185008      -0.00051128
B       -0.72935268       1.18848899       3.10052336      -0.00008808      -0.00368570       0.00436598
B       -0.09673779      -0.23060316       3.98837445      -0.00519011       0.00048305      -0.00479316
B       -0.36026331      -1.66166506       2.96300417       0.00239282       0.00492679       0.00633094
C       -1.05517053      -1.05710224       1.56400000       0.27789867       0.31757736      -0.47645888
B        1.41983742       0.10014003       1.56243849       0.01289623      -0.01723836      -0.02588222
B        0.22163906       1.41281716       1.60643293       0.01275572      -0.00163776       0.00483213
B       -1.36593877       0.61051870       1.53553947       0.01169233       0.00389248       0.02678479
B       -1.56971910      -0.36262251       3.01222220       0.00128231       0.00168629      -0.01210830
C        1.14300000       0.92400000      -1.55300000      -0.40117395      -0.35085538       0.41554907
B        1.60848167       0.15789023      -2.97866874      -0.00038185       0.00768288      -0.01283215
B        0.63935560      -1.32149646      -3.05145618       0.01256737       0.00027875      -0.00114858
B       -1.06869977      -0.85563163      -3.09304883       0.00860863       0.00137939      -0.01286069
B        0.14100021       0.12094676      -3.97447512       0.00222337       0.00238353       0.00268710
B        0.51100799       1.54653005      -2.97573927       0.00318354      -0.00437391      -0.00553773
C       -0.40000000       1.32300000      -1.56800000      -0.03383637       0.06520794       0.20706482
B        1.30266110      -0.76937478      -1.49134387       0.01894861       0.00831718       0.02357492
B       -0.34707931      -1.43221613      -1.56581332       0.01772495      -0.00215248       0.00029756
B       -1.43224401      -0.02291670      -1.56316921       0.01305109      -0.01370511      -0.02348365
B       -1.14089406       0.90929159      -3.04019274       0.00587831       0.00309685       0.00757697
Co       0.00000000       0.00000000       0.00000000       0.17251141      -0.30958217       0.07971362
H        0.84227029      -2.23557638       1.05036006       0.00043085       0.00909082      -0.00274242
H        2.14710756      -1.52688807       3.41947477      -0.00057356      -0.00003214       0.00237883
H        1.80220770       1.53554097       3.68365414       0.00104051       0.00606064       0.01040739
H       -1.22331247       2.10665496       3.66527432      -0.00039509      -0.00345063      -0.00651450
H       -0.11871599      -0.32374262       5.17089707      -0.00353584       0.00036482      -0.01008632
H       -0.57077764      -2.78191669       3.27515565       0.00024280       0.00848144      -0.00403215
H       -1.68212718      -1.76176218       1.04256336       0.00415859       0.00409579      -0.00329743
H        2.53102724       0.11690087       1.14194760      -0.02500171       0.00365194      -0.03749500
H        0.42740962       2.52572455       1.23137172       0.00730104       0.01439059      -0.00989948
H       -2.37317457       1.02181020       1.06749394      -0.01077336       0.02314192       0.01339978
H       -2.65672478      -0.61820643       3.40607741       0.01017319       0.00762596      -0.01144261
H        1.81279927       1.59319833      -1.03909674      -0.00202238      -0.00789541       0.00249187
H        2.71655065       0.30932961      -3.36469534       0.00229189       0.00442675       0.00055309
H        1.06734720      -2.29179826      -3.57979005       0.00307831      -0.00304906      -0.01136730
H       -1.90195982      -1.47844300      -3.66171334       0.00243112       0.00286894      -0.00224647
H        0.18433207       0.18611582      -5.15815186       0.00256109       0.00501249       0.00861898
H        0.80227691       2.64274231      -3.30738147      -0.00239663      -0.00635632       0.00544956
H       -0.66839823       2.25355489      -1.09379788       0.00109893      -0.00375243       0.00169857
H        2.27704680      -1.26763233      -1.02840359      -0.02798035       0.01234897       0.03514922
H       -0.65261793      -2.51292714      -1.16444870       0.00486353      -0.00895981       0.00871623
H       -2.52778700       0.06726594      -1.12338060      -0.02127918      -0.01679103      -0.01606669
H       -1.99287562       1.61411140      -3.46293432       0.00528710      -0.00701395       0.00435007
