45
Properties=species:S:1:pos:R:3:forces:R:3 charge=-1 spin=1 energy=-54314.47538091439 free_energy=-54314.47538091439 stress="1.5304473638534546 0.2761317193508148 0.5214626789093018 0.2761317193508148 0.4506320059299469 -0.3372780382633209 0.5214626789093018 -0.3372780382633209 1.079303503036499" pbc="F F F"
C        0.60818331       1.30115758       1.55400000      -0.05657553      -0.22429675      -0.00841276
B       -0.22640233       1.50811416       3.01009462       0.00510834      -0.00072888       0.00113036
B       -1.34725756       0.13748027       3.07212564       0.00122934      -0.00012457       0.00062082
B       -0.37962498      -1.34618264       3.04915909       0.00129249      -0.00110390       0.00155812
B        0.19618724       0.07864222       3.96599565      -0.00145192      -0.00029708       0.00117646
B        1.42873142       0.88538763       2.97212670       0.00324217      -0.00190045       0.00043089
C        1.49339876      -0.02470124       1.56400000      -0.59993309       0.17252433      -0.36054620
B       -1.06445529       0.97229855       1.53718575      -0.00341856      -0.00133068      -0.00618584
B       -1.19241164      -0.81055766       1.54635004      -0.00215220       0.00465799      -0.00367849
B        0.49761337      -1.40071717       1.49036816      -0.00510303      -0.00146606       0.00170771
B        1.32094788      -0.88429526       2.99694059      -0.00041955      -0.00047324       0.00314221
C        1.14300000       0.92400000      -1.55300000      -0.49754173      -0.32845411       0.06102610
B        1.60720906       0.16224254      -2.98409401      -0.00223702       0.00417218      -0.00152928
B        0.64221956      -1.32230859      -3.03299127      -0.00083254       0.00079236      -0.00032879
B       -1.06758572      -0.86142747      -3.05632499      -0.00153388      -0.00046730      -0.00132841
B        0.13019173       0.11311156      -3.96130283      -0.00012261      -0.00227052      -0.00138503
B        0.50487410       1.54494087      -2.97972138      -0.00286736       0.00112565      -0.00122625
C       -0.40000000       1.32300000      -1.56800000       0.17344709       0.08594722       0.26093894
B        1.31652815      -0.76634757      -1.49233920       0.00066552      -0.00267347       0.00576038
B       -0.33897995      -1.44158302      -1.52565376       0.00505248      -0.00094627       0.00498410
B       -1.42754520      -0.02661603      -1.51776948       0.00024620      -0.00428650      -0.00020944
B       -1.14505101       0.89883345      -3.02121493      -0.00011679      -0.00140494      -0.00269764
Co       0.00000000       0.00000000       0.00000000       0.97575980       0.29758528       0.04185216
H        1.03866389       2.17481893       1.08800553       0.00524630       0.00027976      -0.00791674
H       -0.39919349       2.60681427       3.41694581       0.00035404       0.00061527      -0.00177082
H       -2.38645557       0.22859219       3.63395966      -0.00014114       0.00202164      -0.00174475
H       -0.70779044      -2.34290809       3.59922893      -0.00274170      -0.00050055       0.00103697
H        0.26305877       0.10935213       5.14947743      -0.00086423       0.00096147       0.00062400
H        2.38165864       1.50435342       3.30093697       0.00027128       0.00201443       0.00126685
H        2.44580181       0.00721354       1.06064133       0.00665501      -0.00322143      -0.00160643
H       -1.81891329       1.77328942       1.08541852       0.00080627       0.00365860      -0.00221180
H       -2.13664014      -1.43117661       1.18468754      -0.00199734       0.00198794      -0.00086556
H        0.91593691      -2.41483696       1.04622296      -0.00249928      -0.00065850       0.00094365
H        2.24647109      -1.50552753       3.39475575      -0.00024485      -0.00078591       0.00177487
H        1.82486605       1.60839956      -1.07278959      -0.00133995       0.00467777       0.00730207
H        2.71292615       0.32178343      -3.37736799       0.00059491      -0.00023916       0.00188272
H        1.06061381      -2.29406975      -3.56653055       0.00172519       0.00006660       0.00286463
H       -1.90170279      -1.48728506      -3.61841060      -0.00039388      -0.00404242      -0.00060120
H        0.15850464       0.17102258      -5.14529187       0.00115718      -0.00179446      -0.00094431
H        0.78737335       2.64411045      -3.31332672       0.00139218      -0.00050070      -0.00138368
H       -0.67436607       2.25739096      -1.10362442      -0.00411625       0.00470104       0.00023648
H        2.29487905      -1.24279090      -1.01382332       0.00329988       0.00240979       0.00289301
H       -0.63825675      -2.52546565      -1.14878667       0.00224924      -0.00223780       0.00262800
H       -2.52865579       0.07696187      -1.09498159      -0.00063781      -0.00228219       0.00027043
H       -2.00642150       1.59500519      -3.43849935      -0.00051260      -0.00171162      -0.00147817
