45
Properties=species:S:1:pos:R:3:forces:R:3 charge=-1 spin=1 energy=-54314.54397870797 free_energy=-54314.54397870797 stress="0.6860312819480896 0.522880494594574 -0.8006254434585571 0.522880494594574 1.083808422088623 -1.4191279411315918 -0.8006254434585571 -1.4191279411315918 1.91598641872406" pbc="F F F"
C        0.65089113      -1.28032759       1.55400000      -0.12603670       0.17989028      -0.21466862
B        1.32424224      -0.76119388       3.01591930       0.00043214      -0.00280025       0.00442393
B        0.93114424       0.96274925       3.10996593       0.00207588      -0.00009394      -0.00281534
B       -0.83335781       1.11258204       3.09582728       0.00220186      -0.00207143       0.00631767
B       -0.06231908      -0.23290343       3.98458060       0.00475783       0.00280715       0.00148536
B       -0.18228854      -1.68528457       2.96420204      -0.00163311      -0.00012400      -0.00263078
C       -0.93889293      -1.16160668       1.56400000       0.27389097       0.46801525      -0.44019675
B        1.40864053       0.24161644       1.55482960      -0.00673054       0.00162996      -0.00296848
B        0.08681731       1.43115628       1.60143052       0.00774860      -0.00107788      -0.00182008
B       -1.41404353       0.47249545       1.53532129      -0.00731115       0.00136065       0.00157338
B       -1.51506984      -0.51508105       3.01044460       0.00063558      -0.00096130       0.00042763
C        1.14300000       0.92400000      -1.55300000      -0.33504170      -0.20087630       0.49789265
B        1.62679907       0.16731860      -2.97477425      -0.00021616       0.00476064      -0.00508063
B        0.67159851      -1.31886807      -3.05451178       0.00185550      -0.00002638       0.00270752
B       -1.03899348      -0.86295734      -3.10406048       0.00354581       0.00214756      -0.00701111
B        0.16583554       0.12387453      -3.97682713       0.00209135      -0.00430210      -0.00065017
B        0.51848078       1.54940368      -2.97426797      -0.00184702       0.00128102       0.00174410
C       -0.40000000       1.32300000      -1.56800000      -0.03199831      -0.09127359       0.11714216
B        1.31753809      -0.76110364      -1.48839338      -0.00785556      -0.00230012       0.00404872
B       -0.32430603      -1.43738711      -1.57327595       0.00883744      -0.00317735       0.00190788
B       -1.42131733      -0.03644721      -1.57544916      -0.00651357      -0.00064064      -0.00164028
B       -1.12661602       0.90203418      -3.04662812       0.00295529       0.00225411      -0.00110360
Co       0.00000000       0.00000000       0.00000000       0.18507715      -0.35176983       0.04120822
H        1.07021684      -2.13573282       1.05065126      -0.00197439      -0.00032266      -0.00237414
H        2.29863268      -1.29973444       3.41605096       0.00520431      -0.00463130      -0.00031327
H        1.64895838       1.71593872       3.67760427       0.00184087      -0.00427692      -0.00070732
H       -1.41908919       1.97594156       3.65841955       0.00159951       0.00330326       0.00220323
H       -0.07552926      -0.32520699       5.16683433       0.00229540      -0.00112355       0.00137016
H       -0.27755150      -2.81987245       3.27959683       0.00203841       0.00017842      -0.00026799
H       -1.49103515      -1.92660651       1.04410470      -0.00075759      -0.00023172      -0.00086371
H        2.50398805       0.36574075       1.11063608       0.00036978      -0.00229404       0.00039052
H        0.18028250       2.55910778       1.22427902       0.00265895      -0.00413076       0.00184587
H       -2.46266343       0.78694774       1.08422080      -0.00024902       0.00262227      -0.00250499
H       -2.57118049      -0.87364472       3.40580422      -0.00012146       0.00202062       0.00208363
H        1.80983971       1.59275560      -1.03481165      -0.00282898       0.00234040       0.00187070
H        2.73620754       0.33263174      -3.35093001       0.00536657       0.00288529      -0.00004881
H        1.10668626      -2.28534073      -3.58504452       0.00262565       0.00417991       0.00040181
H       -1.86619881      -1.48789534      -3.67874349       0.00114551      -0.00281576      -0.00209532
H        0.21369260       0.19338296      -5.15978015       0.00231232       0.00119148       0.00063940
H        0.80685154       2.64761269      -3.30047823       0.00168847      -0.00046556       0.00030807
H       -0.67303634       2.25208212      -1.09479925      -0.00062030       0.00078959      -0.00021429
H        2.28625657      -1.24474256      -0.99885010       0.00350283       0.00107254      -0.00030592
H       -0.62226583      -2.52176571      -1.17510893       0.00327769       0.00082377      -0.00144531
H       -2.52677844       0.03741169      -1.15873177      -0.00048458      -0.00171510       0.00173252
H       -1.98285952       1.59776059      -3.47443612       0.00018854      -0.00205184      -0.00199829
