45
Properties=species:S:1:pos:R:3:forces:R:3 charge=-1 spin=1 energy=-242.23483276367188 free_energy=-242.23483276367188 stress="-6.789302631204919e-08 4.1637672865135755e-08 1.8778612442815756e-08 4.1637672865135755e-08 -6.654330775290873e-08 1.0572311914813781e-08 1.8778612442815756e-08 1.0572311914813781e-08 -2.1321089604953158e-07" pbc="F F F"
C       -0.78115616       1.20527717       1.55400000      -0.18776701       0.14669117       0.22462581
B       -1.39255467       0.62058389       3.01995997      -0.00132349      -0.00102121      -0.00054270
B       -0.82774153      -1.05143863       3.06747726      -0.00083780      -0.00014332      -0.00069055
B        0.95419334      -1.01002579       3.06044700      -0.00043596       0.00037591       0.00185937
B        0.03519054       0.22986532       3.96983100      -0.00098754       0.00009701       0.00023378
B        0.00408807       1.67489022       3.02146742      -0.00021963       0.00017213       0.00041824
C        0.81232861       1.25338431       1.56400000       0.08294812      -0.03853208       0.17984214
B       -1.38036453      -0.36767009       1.51917115      -0.00056314      -0.00052105       0.00145280
B        0.06877401      -1.41759749       1.55937222       0.00056765       0.00127903      -0.00285655
B        1.46975054      -0.29061722       1.52268289      -0.00200862       0.00012569      -0.00107875
B        1.44678100       0.68545285       3.02002631      -0.00059674       0.00032371       0.00123213
C        1.14300000       0.92400000      -1.55300000       0.11411013      -0.02984822      -0.19419599
B        1.61118664       0.17522350      -2.99156820       0.00129060      -0.00385290       0.00010549
B        0.66162987      -1.31396142      -3.01710080       0.00063002      -0.00072987       0.00220148
B       -1.06006452      -0.85569226      -3.05474987       0.00241156      -0.00033233      -0.00194952
B        0.14224410       0.11719871      -3.95838011       0.00115082      -0.00215998       0.00048052
B        0.50587478       1.52910360      -3.03048529       0.00014523      -0.00071158      -0.00186162
C       -0.40000000       1.32300000      -1.56800000      -0.19076744       0.21514593      -0.27233547
B        1.33319433      -0.74323235      -1.46867720      -0.00094318      -0.00090935      -0.00039214
B       -0.32294198      -1.42731901      -1.52309715      -0.00033599       0.00091797       0.00215541
B       -1.42733573      -0.01447400      -1.54050728       0.00159141      -0.00091755       0.00290206
B       -1.13258805       0.90876204      -3.03758455       0.00114430      -0.00184269      -0.00320617
Co       0.00000000       0.00000000       0.00000000       0.17323387      -0.30230197       0.05644402
H       -1.32736196       2.01961562       1.06801920      -0.00031127       0.00289673      -0.00265234
H       -2.43666692       1.03106499       3.42149018      -0.00114051      -0.00001547      -0.00074610
H       -1.44543134      -1.90445913       3.62924605      -0.00057677       0.00045837       0.00021534
H        1.61224892      -1.83400986       3.61929211       0.00050656       0.00031929       0.00091030
H        0.03689476       0.24698232       5.15937343      -0.00087888       0.00080937       0.00008561
H       -0.02598681       2.81791001       3.34022687      -0.00101845       0.00019044      -0.00053969
H        1.31779401       2.08958369       1.07293618       0.00553621       0.00680675      -0.00454547
H       -2.47045719      -0.58998619       1.08335180       0.00046773      -0.00064840      -0.00060007
H        0.09440220      -2.54796916       1.16935358      -0.00016874       0.00012310       0.00120675
H        2.56595696      -0.46555007       1.08524140      -0.00021805       0.00113376       0.00469781
H        2.47080033       1.13735712       3.42850896      -0.00048220       0.00080627      -0.00008146
H        1.85584569       1.59301750      -1.06315509       0.00167733       0.00404379       0.00223131
H        2.72761659       0.31029859      -3.38495579       0.00169572      -0.00119833       0.00174399
H        1.06963011      -2.30061061      -3.55070727       0.00087738       0.00024827       0.00232424
H       -1.88179879      -1.51095034      -3.62036267       0.00132246      -0.00004517       0.00011975
H        0.16152056       0.11395075      -5.14800296       0.00193831      -0.00135012       0.00125864
H        0.80044179       2.62931636      -3.36493533       0.00174123      -0.00038379      -0.00022966
H       -0.70296238       2.27054964      -1.11155314      -0.00332259       0.00605235       0.00337131
H        2.32955252      -1.21404566      -1.01135138      -0.00146099      -0.00234797      -0.00206839
H       -0.61124258      -2.51130126      -1.10884414      -0.00012258       0.00062977       0.00010138
H       -2.53893818       0.08020416      -1.11317330       0.00015765       0.00009935      -0.00098781
H       -2.01012864       1.59205625      -3.46556243       0.00134294       0.00006776      -0.00065985
