45
Properties=species:S:1:pos:R:3:forces:R:3 charge=-1 spin=1 energy=-242.3099365234375 free_energy=-242.3099365234375 stress="3.34976526517039e-08 9.241014176097906e-09 -2.5733360331514632e-08 9.241014176097906e-09 5.5656023789651954e-08 3.073374088558012e-08 -2.5733360331514632e-08 3.073374088558012e-08 3.4524603620411654e-08" pbc="F F F"
C        1.25540220       0.78868837       1.59630940      -0.01460227      -0.00375649      -0.00354972
B        0.68827116       1.39837058       3.04923382      -0.00242148      -0.00200539       0.00639148
B       -0.99226280       0.85095142       3.11084746      -0.00208974      -0.00502756       0.00873684
B       -0.97179091      -0.93341493       3.10650171       0.00052460      -0.00480705      -0.00530361
B        0.29128439      -0.03426581       4.00227785      -0.00345348      -0.00685527       0.00339686
B        1.72810888      -0.01918870       3.03788114      -0.00820167      -0.00209765       0.00010523
C        1.27129010      -0.81720317       1.58797679       0.00536001       0.01988696      -0.00200175
B       -0.31478702       1.38664652       1.56092023       0.01673485      -0.00251818      -0.02024152
B       -1.40485695      -0.04980906       1.63600000       0.08507687       0.09108850      -0.15993731
B       -0.28409409      -1.42531469       1.50596163      -0.01798072       0.01499507      -0.00718617
B        0.71675460      -1.44736951       3.04243066       0.00252435       0.00294393       0.00327913
C        1.12926668       0.97407514      -1.58688541      -0.00216634      -0.01107547      -0.00375682
B        1.62400832       0.25003499      -3.01675524      -0.00299459       0.00248883      -0.00544312
B        0.70551886      -1.25797520      -3.07141854      -0.00084570       0.00147018      -0.00995012
B       -1.02482423      -0.82490441      -3.10645476      -0.00082627       0.00108711       0.00318197
B        0.15853735       0.18031266      -3.99972796      -0.00449531      -0.00258462      -0.00212644
B        0.49265536       1.59149314      -3.05595603      -0.01041108      -0.00555480      -0.00178397
C       -0.42658084       1.36519830      -1.62189930       0.00903699       0.00218230       0.01421206
B        1.34454699      -0.68873119      -1.51530801       0.00729939       0.01617405       0.00095769
B       -0.27500000      -1.43300000      -1.61500000      -0.02542405       0.16435018       0.13202350
B       -1.38183280      -0.00850411      -1.54159746       0.00906849      -0.02779169       0.01981601
B       -1.13581155       0.94033309      -3.08221391       0.00295740       0.00005496      -0.00139022
Co       0.00000000       0.00000000       0.00000000      -0.02303163      -0.22664064       0.03062517
H        2.06661810       1.31364593       1.08321919       0.00319767       0.00431895       0.04770691
H        1.11119421       2.43756122       3.45284829      -0.00325760      -0.00272235       0.00412604
H       -1.82200802       1.48695495       3.68685530      -0.00195555      -0.00554729       0.00529774
H       -1.78996453      -1.58930513       3.67802932       0.00501304      -0.01045485      -0.00874360
H        0.32360311      -0.03359566       5.19198686      -0.00069940      -0.00406823       0.00215515
H        2.87544616      -0.01062020       3.34491749      -0.00902426       0.00144424       0.00702520
H        2.07815914      -1.32273881       1.05327413       0.01995651      -0.00899908       0.04282037
H       -0.53369253       2.47706033       1.11695254      -0.01648329      -0.01653584      -0.01107742
H       -2.52912207      -0.05576104       1.22907456       0.00383970      -0.00276265       0.00304438
H       -0.47690804      -2.52498701       1.07994523       0.00585822       0.01496828      -0.00327481
H        1.15078508      -2.48687229       3.43207331      -0.00425998      -0.00420249       0.00180480
H        1.81967726       1.64775353      -1.07073481      -0.00076842       0.00939807      -0.04584382
H        2.74157904       0.40761085      -3.40091808      -0.00425893       0.00578957       0.00247355
H        1.14209281      -2.22017885      -3.62657842      -0.00001273       0.00135183      -0.00227983
H       -1.84303600      -1.47791760      -3.68106359      -0.00318578       0.00286531       0.00681791
H        0.18550742       0.19020781      -5.18948118       0.00311028      -0.00248503      -0.00133693
H        0.77858691       2.69808231      -3.37861178      -0.00611807      -0.00644228      -0.00719362
H       -0.74190174       2.28228672      -1.11782352      -0.00650346       0.01791196      -0.01121160
H        2.34242540      -1.14174748      -1.03480285      -0.01163746      -0.00338943      -0.02924265
H       -0.56000545      -2.50949858      -1.18289497      -0.00147094       0.00390320      -0.02155056
H       -2.50762654       0.06086604      -1.14393181       0.01501477      -0.00105065       0.02482332
H       -2.03461312       1.59981948      -3.50455261      -0.00599340      -0.00929844      -0.00639577
