45
Properties=species:S:1:pos:R:3:forces:R:3 charge=-1 spin=1 energy=-242.27476501464844 free_energy=-242.27476501464844 stress="-7.549037661647162e-08 1.0804116712392897e-08 -5.7478846571257236e-08 1.0804116712392897e-08 -8.924965300138865e-08 8.428574460594973e-08 -5.7478846571257236e-08 8.428574460594973e-08 -1.710330508331026e-07" pbc="F F F"
C        1.43608271       0.02375840       1.55400000       0.20126627       0.05289461       0.31237715
B        1.26956772       0.83492604       3.02956865       0.00452881      -0.00144795      -0.00843787
B       -0.44674362       1.25058188       3.08243901      -0.00168902       0.00389619      -0.00293963
B       -1.36282540      -0.28201501       3.05541535      -0.00165501      -0.00289990      -0.00013930
B        0.17391185      -0.17900844       3.97211562       0.00128847       0.00018681       0.00075025
B        1.41528531      -0.91433328       3.02606876       0.00088573       0.00084976      -0.00428302
C        0.63246160      -1.35308622       1.56400000      -0.02324140      -0.08914573       0.02607417
B        0.42654490       1.37368106       1.55081712       0.00357647      -0.00415543      -0.00553177
B       -1.23883616       0.71289061       1.58638059       0.00050777      -0.00157364      -0.00383948
B       -1.01695498      -1.07054797       1.48119238      -0.00146227      -0.00139493       0.00210156
B       -0.19097402      -1.60439087       3.01271339       0.00199421      -0.00140731      -0.00246743
C        1.14300000       0.92400000      -1.55300000       0.09407859       0.02209800      -0.17265728
B        1.61861279       0.19936037      -2.99804421       0.00117091       0.00387987       0.00862852
B        0.67660318      -1.29401671      -3.04425319       0.00238204      -0.00386542       0.00288250
B       -1.04897741      -0.83848433      -3.07506752      -0.00386801       0.00069392      -0.00068060
B        0.14662721       0.15220384      -3.96902444       0.00130528       0.00011442      -0.00119828
B        0.50391354       1.55348297      -3.02773009       0.00206579      -0.00078132       0.00395871
C       -0.40000000       1.32300000      -1.56800000      -0.15209983       0.31106868      -0.22663376
B        1.34257625      -0.74359932      -1.50344771      -0.00047714       0.00782852       0.00491080
B       -0.30605937      -1.43964425      -1.57669829      -0.00044776       0.00170648       0.00426118
B       -1.40597974      -0.01861090      -1.52543999      -0.00145295       0.00134437      -0.00140679
B       -1.13034766       0.92591054      -3.04497916      -0.00025759       0.00210604       0.00203752
Co       0.00000000       0.00000000       0.00000000      -0.09509163      -0.29426205       0.07150254
H        2.41771902       0.04705354       1.07091741       0.00240868      -0.00223583      -0.00470276
H        2.17651855       1.49075886       3.44030291      -0.00334735       0.00222376       0.00015514
H       -0.83354912       2.21668264       3.66651161      -0.00399450       0.00396979      -0.00089455
H       -2.41356093      -0.41423888       3.60677902      -0.00285630      -0.00122315      -0.00003050
H        0.18450448      -0.19826009       5.16201434      -0.00195456       0.00205123       0.00271350
H        2.39876791      -1.50059895       3.34043469      -0.00128138       0.00228748       0.00222218
H        1.06550802      -2.21029795       1.04065563      -0.00038724       0.00146034      -0.00103740
H        0.81071134       2.40835527       1.08542096      -0.00562533      -0.00214647       0.00266422
H       -2.20621892       1.28385639       1.17436618      -0.00369987      -0.00218596      -0.00189605
H       -1.74084328      -1.90331253       1.02206236       0.00088593      -0.00169390       0.00074267
H       -0.37192162      -2.71790950       3.39792205       0.00042507       0.00021124       0.00168468
H        1.84649251       1.59439607      -1.04961644       0.00595428       0.00375008      -0.00517778
H        2.73469597       0.34886067      -3.38928851      -0.00252905      -0.00385297       0.00080898
H        1.09031847      -2.26472075      -3.60123819      -0.00100807      -0.00546522      -0.00050204
H       -1.87412234      -1.48496419      -3.64639537      -0.00444278      -0.00139102      -0.00048327
H        0.16915988       0.16024706      -5.15877469      -0.00010794      -0.00260469      -0.00343156
H        0.79647586       2.65931488      -3.34602554       0.00043173      -0.00301546      -0.00168879
H       -0.70202454       2.25495774      -1.07878166      -0.00143082      -0.00018863      -0.00186184
H        2.32185612      -1.21278495      -1.00097560      -0.00570157       0.00067233       0.00153066
H       -0.60070011      -2.51344783      -1.14107652      -0.00382564      -0.00046761       0.00064556
H       -2.52076073       0.07648274      -1.10287249      -0.00068360       0.00153491       0.00052153
H       -2.02087063       1.60316519      -3.45638455      -0.00053747       0.00057597      -0.00125270
