45
Properties=species:S:1:pos:R:3:forces:R:3 charge=-1 spin=1 energy=-54314.331397073445 free_energy=-54314.331397073445 stress="1.2804547548294067 -0.11690788716077805 0.3293014466762543 -0.11690788716077805 0.5254043340682983 -0.48206809163093567 0.3293014466762543 -0.48206809163093567 0.7707425951957703" pbc="F F F"
C        1.14785048       0.86332918       1.55400000      -0.03061377      -0.17845565       0.02881787
B        0.53361750       1.44609636       3.01789750      -0.00128175      -0.00029606      -0.00222758
B       -1.09883389       0.76840426       3.10449053      -0.00034432      -0.00353918      -0.00034370
B       -0.94686648      -0.99461052       3.08686708      -0.00024135      -0.00199508      -0.00653787
B        0.24435975      -0.00789825       3.98455812      -0.00056482       0.00058048      -0.00143681
B        1.69540382       0.11588587       2.96824835      -0.00038198       0.00195638      -0.00081045
C        1.30699631      -0.72291815       1.56400000      -0.49947339       0.41853607      -0.23350920
B       -0.47458970       1.36012091       1.55856728       0.00242436       0.00315408      -0.00070136
B       -1.42804858      -0.14808418       1.58650930      -0.00219418      -0.00441145       0.00154389
B       -0.21821905      -1.46364990       1.51731581      -0.00316290      -0.00044221       0.00086565
B        0.76796254      -1.39114594       3.01213054      -0.00248792      -0.00140746      -0.00156959
C        1.14300000       0.92400000      -1.55300000      -0.46043932      -0.16763817       0.02751347
B        1.62207279       0.19679116      -2.99768574      -0.00026794      -0.00186143       0.00278897
B        0.66454062      -1.28803980      -3.08246050      -0.00364473       0.00026862       0.00143397
B       -1.04501216      -0.83435852      -3.10822618      -0.00199881       0.00009277       0.00724483
B        0.15355120       0.16094583      -3.98747127       0.00078543       0.00027175       0.00196645
B        0.51357576       1.57198308      -2.97339654       0.00219274      -0.00055604       0.00067476
C       -0.40000000       1.32300000      -1.56800000       0.15599848       0.06747787       0.18701667
B        1.32026441      -0.75669477      -1.52613302       0.00405718       0.00228560       0.00040039
B       -0.32658665      -1.43591130      -1.58418465      -0.00373304      -0.00207680      -0.00155470
B       -1.41853647      -0.02855758      -1.55317367      -0.00149545      -0.00128476      -0.00147949
B       -1.13143946       0.92257027      -3.03930046      -0.00209164      -0.00221942       0.00234957
Co       0.00000000       0.00000000       0.00000000       0.84625620      -0.13445303      -0.01530860
H        1.94000558       1.42331775       1.08343214      -0.00179637       0.00467144       0.00787492
H        0.90666866       2.49929392       3.41018679      -0.00225266      -0.00114444       0.00040787
H       -1.96544754       1.34489436       3.67071997      -0.00046425      -0.00210614       0.00077550
H       -1.70209655      -1.71562979       3.64694566       0.00431746       0.00083032      -0.00189722
H        0.33378904      -0.00614937       5.16702780       0.00079368      -0.00235094      -0.00055129
H        2.83206539       0.21580193       3.27794502       0.00099068       0.00004740      -0.00039116
H        2.16104186      -1.14087802       1.06193506       0.00170065       0.00036699       0.00129570
H       -0.76697855       2.42795045       1.12131217      -0.00389359      -0.00079682      -0.00016129
H       -2.56166012      -0.25112732       1.25511155       0.00173486      -0.00109161      -0.00099853
H       -0.33700808      -2.56172532       1.09617124       0.00138922       0.00228986      -0.00279386
H        1.29531719      -2.37439078       3.40594918       0.00142175      -0.00108560      -0.00250468
H        1.81609550       1.61038852      -1.06640163       0.00378709      -0.00265493      -0.00728673
H        2.73152050       0.36949346      -3.37414426      -0.00179083      -0.00169514      -0.00032077
H        1.09327358      -2.25007931      -3.62537652      -0.00249878       0.00016828      -0.00006968
H       -1.87337968      -1.45649338      -3.68309332       0.00139183       0.00463558       0.00216202
H        0.19111362       0.24170372      -5.16997329      -0.00227116       0.00100093       0.00095551
H        0.79698500       2.67800046      -3.28002962       0.00076869       0.00120355       0.00045570
H       -0.67409746       2.25258800      -1.09858144       0.00005870       0.00169010      -0.00030853
H        2.30647512      -1.23949882      -1.06852945      -0.00127748      -0.00380095      -0.00081141
H       -0.62485217      -2.53199857      -1.24757917      -0.00128154       0.00199026       0.00173431
H       -2.52790184       0.05911187      -1.15315113       0.00161997       0.00173656       0.00278649
H       -1.99335958       1.62262795      -3.44774157       0.00025488       0.00210837       0.00251003
