45
Properties=species:S:1:pos:R:3:forces:R:3 charge=-1 spin=1 energy=-242.22998046875 free_energy=-242.22998046875 stress="2.264660015072195e-09 -1.548667860618025e-08 -3.2643681091570897e-09 -1.548667860618025e-08 7.753295960810647e-08 2.612053862094399e-08 -3.2643681091570897e-09 2.612053862094399e-08 6.9157451321189e-08" pbc="F F F"
C       -1.06982563       1.01691392       1.59133557       0.01434318       0.00530368      -0.00867140
B       -1.52288489       0.32448510       3.04625338       0.00782911      -0.00465093       0.00566632
B       -0.57866963      -1.16678043       3.12134988      -0.00026433      -0.00101228      -0.01079102
B        1.14327443      -0.71304073       3.12046688      -0.00110893      -0.00849956      -0.00239606
B       -0.04523298       0.29774026       4.00492664      -0.00654391      -0.01267923       0.00174211
B       -0.40642118       1.67713163       3.02718760      -0.01059919      -0.00078262      -0.00758483
C        0.48907672       1.42370536       1.58888818      -0.03841621       0.01598871      -0.00061351
B       -1.25122790      -0.65084348       1.54206038      -0.00199956      -0.00389426      -0.01350321
B        0.39761793      -1.34833378       1.63600000      -0.07343985       0.05784273      -0.15567210
B        1.47334385       0.07207983       1.55523402       0.01535258      -0.00329490       0.00240511
B        1.22808993       1.04718574       3.04238805       0.00777963      -0.00551935       0.01114057
C        1.14753610       0.95708862      -1.59174007      -0.03000473       0.02365750       0.02519682
B        1.62261848       0.24569928      -3.02829271      -0.01030335      -0.00876179      -0.00987714
B        0.69491111      -1.25455960      -3.09234668       0.00146250       0.00092243       0.01374578
B       -1.03042345      -0.81840288      -3.11443108       0.00149874      -0.01038316      -0.00003621
B        0.15573149       0.19335132      -4.00243514       0.00360044      -0.01380324      -0.00152128
B        0.49880090       1.58990516      -3.04165400       0.00109184      -0.00201687      -0.00312303
C       -0.41759568       1.35541965      -1.61172387      -0.01068071       0.00090310      -0.00963655
B        1.33735461      -0.70236893      -1.50622616       0.00071588      -0.01135472       0.02718766
B       -0.27500000      -1.43300000      -1.61500000      -0.05380573       0.17922485       0.18445319
B       -1.39382259      -0.01569249      -1.57320041      -0.00799188       0.00862055      -0.00303566
B       -1.13490298       0.94534705      -3.06607831      -0.00972125      -0.00486650      -0.00964679
Co       0.00000000       0.00000000       0.00000000       0.20080674      -0.26215893      -0.03432762
H       -1.78261844       1.67101759       1.07998862      -0.00018391      -0.00810147      -0.00025213
H       -2.63616387       0.48156334       3.44092163      -0.01083928      -0.01086077       0.01209486
H       -0.99350844      -2.12455580       3.70204317       0.00274285       0.00046809      -0.01181195
H        1.97631209      -1.33996524       3.70229824      -0.00210401      -0.00437767      -0.00215713
H       -0.05929929       0.34728564       5.19358103       0.00567457      -0.01214277       0.00490578
H       -0.69720974       2.79027164       3.32098830      -0.00193239      -0.00412363       0.01923022
H        0.78453918       2.34677227       1.08101283       0.00480223       0.00241321      -0.00409959
H       -2.25765277      -1.13768746       1.11639088       0.00383084       0.01760041      -0.01233214
H        0.68371323      -2.44344169       1.24445716      -0.01476203       0.03127659       0.02622347
H        2.58476651       0.13814213       1.12193350      -0.00628712       0.01182964      -0.04212279
H        2.12176505       1.72919786       3.43787873       0.00611542       0.00680722       0.01187347
H        1.84786140       1.62346748      -1.08116319       0.01195191       0.00130621       0.01513204
H        2.73900605       0.40104176      -3.41397444       0.01569247      -0.00471290      -0.01082800
H        1.12639791      -2.21336749      -3.65933282       0.00049639       0.00221004       0.01580502
H       -1.85077973      -1.46144567      -3.69650500       0.00181958      -0.00890654       0.00187144
H        0.18023238       0.22828936      -5.19154643      -0.00388966      -0.01584022      -0.00305918
H        0.78786243       2.69931383      -3.35001174      -0.00508755       0.00215387      -0.02501477
H       -0.72867185       2.28600910      -1.12609336       0.00019696      -0.00230637      -0.01222543
H        2.34832848      -1.17224253      -1.07522353      -0.01497786       0.02985409       0.03660132
H       -0.55877289      -2.51956163      -1.20091528       0.01257058       0.02856802      -0.01943048
H       -2.50780723       0.04168717      -1.14173033       0.00052409       0.00159921       0.01254083
H       -2.02780712       1.61637425      -3.48261223      -0.00595564      -0.00349951      -0.01404561
