45
Properties=species:S:1:pos:R:3:forces:R:3 charge=-1 spin=1 energy=-242.3099822998047 free_energy=-242.3099822998047 stress="3.457916264437699e-08 1.061283150249892e-08 -2.4863821224130334e-08 1.061283150249892e-08 4.932658015377456e-08 3.249688518280891e-08 -2.4863821224130334e-08 3.249688518280891e-08 3.713822138706746e-08" pbc="F F F"
C        1.34457860       0.62513701       1.59640644      -0.01258048      -0.00062620       0.00141522
B        0.85810210       1.30106389       3.04913254      -0.00023811       0.00174248       0.00722510
B       -0.87770103       0.96864528       3.11068275      -0.00544292      -0.00316474       0.00748932
B       -1.08108954      -0.80417043       3.10656796      -0.00133562      -0.00583875      -0.00499632
B        0.28475499      -0.07040419       4.00218322      -0.00404096      -0.00682502       0.00448518
B        1.71220540      -0.23561486       3.03790850      -0.00627161      -0.00085317       0.00090327
C        1.15847460      -0.97031177       1.58818797       0.02045488       0.01324181      -0.01601161
B       -0.13879238       1.41513988       1.56129440       0.01250339       0.00227875      -0.02122696
B       -1.40002197       0.12665897       1.63600000       0.08801597       0.08750682      -0.14805047
B       -0.46017203      -1.37867851       1.50608781      -0.01590486       0.01272252      -0.01339457
B        0.52966094      -1.52582882       3.04236090       0.00363874       0.00189160       0.00745597
C        1.12922121       0.97423320      -1.58688558       0.00264835      -0.01006821      -0.00561255
B        1.62400511       0.24998218      -3.01666889       0.00066192       0.00295605      -0.00634550
B        0.70551607      -1.25794763      -3.07123564       0.00013922      -0.00171418      -0.00824106
B       -1.02479630      -0.82490486      -3.10648782      -0.00220422       0.00050086       0.00326718
B        0.15860097       0.18035487      -3.99966930      -0.00444252      -0.00235341      -0.00257997
B        0.49280296       1.59158452      -3.05592879      -0.00947702      -0.00424127      -0.00433476
C       -0.42672413       1.36496539      -1.62226506       0.01051784       0.01283586       0.02267820
B        1.34425319      -0.68892899      -1.51542286       0.01585427       0.01062396       0.00958823
B       -0.27500000      -1.43300000      -1.61500000      -0.02102537       0.15221906       0.12016729
B       -1.38192611      -0.00802908      -1.54190645       0.00483054      -0.02482818       0.02123029
B       -1.13585763       0.94034386      -3.08216432       0.00297376       0.00033333      -0.00554197
Co       0.00000000       0.00000000       0.00000000      -0.02986286      -0.22134359       0.03026330
H        2.21498600       1.04426130       1.08246127      -0.00328449       0.00222743       0.04004204
H        1.40800441       2.27912519       3.45279695      -0.00402337      -0.00259471       0.00456864
H       -1.62126018       1.70368676       3.68679394      -0.00126778      -0.00701065       0.00399376
H       -1.97511625      -1.35228395       3.67816788       0.00452270      -0.01038868      -0.00933891
H        0.31685765      -0.07383363       5.19198082      -0.00141777      -0.00395466       0.00150448
H        2.85156095      -0.37095974       3.34480962      -0.00770634       0.00182527       0.00730149
H        1.89585583      -1.57268603       1.05252985       0.01460242      -0.00355047       0.03313123
H       -0.21875537       2.52471861       1.11707314      -0.01986142      -0.01917788      -0.00801895
H       -2.51624458       0.26171682       1.22902128       0.00204869      -0.00557896       0.00512669
H       -0.78974034      -2.44555291       1.07997052       0.00835071       0.01561226      -0.00522625
H        0.83008882      -2.61142250       3.43203357      -0.00487198      -0.00653629       0.00215927
H        1.81978487       1.64768716      -1.06999276      -0.00529441       0.00172328      -0.03936738
H        2.74167377       0.40753345      -3.40096978      -0.00513056       0.00562573       0.00275519
H        1.14210944      -2.22023312      -3.62656584      -0.00114617       0.00348070      -0.00101145
H       -1.84300460      -1.47797122      -3.68117219      -0.00247349       0.00330203       0.00754970
H        0.18546096       0.19024330      -5.18947862       0.00304742      -0.00264402      -0.00112565
H        0.77867058       2.69816380      -3.37850242      -0.00618391      -0.00499591      -0.00722949
H       -0.74181976       2.28211234      -1.11759539      -0.00252810       0.01650139      -0.01094203
H        2.34275797      -1.14176305      -1.03429447      -0.02192862       0.00191291      -0.02010337
H       -0.55999375      -2.50961951      -1.18255686      -0.00175808       0.00501546      -0.02238940
H       -2.50786619       0.06087440      -1.14428231       0.01521406       0.00076135       0.02392113
H       -2.03450959       1.59994195      -3.50444350      -0.00832202      -0.00855137      -0.00713365
