45
Properties=species:S:1:pos:R:3:forces:R:3 charge=-1 spin=1 energy=-242.2305450439453 free_energy=-242.2305450439453 stress="-4.6106393369882426e-08 3.7151416165670526e-08 -9.545362722462869e-09 3.7151416165670526e-08 -8.827391440036081e-08 1.50923682440407e-08 -9.545362722462869e-09 1.50923682440407e-08 -2.2716467640293558e-07" pbc="F F F"
C        0.07647554       1.43424178       1.55400000      -0.09585722       0.18816692       0.26689255
B       -0.76079413       1.31375117       3.01968903       0.00233823       0.00166636      -0.00157058
B       -1.28801377      -0.37083982       3.06341599      -0.00065020       0.00053893      -0.00162746
B        0.17839575      -1.38511545       3.05070087      -0.00254964       0.00049767       0.00238577
B        0.16679439       0.15234256       3.96604661       0.00070023       0.00250170       0.00082992
B        0.99085196       1.34408368       3.02367059      -0.00080879      -0.00045078       0.00024790
C        1.39390846       0.53653443       1.56400000       0.06430332      -0.06216514       0.14817645
B       -1.33906762       0.51846523       1.53102786      -0.00294694       0.00094217       0.00503160
B       -0.78079373      -1.18805528       1.55086379      -0.00203213      -0.00068957       0.00335358
B        1.00875835      -1.09782464       1.50038935       0.00116527      -0.00141738      -0.00029588
B        1.57447028      -0.30439093       3.01429350       0.00067216       0.00428448       0.00057371
C        1.14300000       0.92400000      -1.55300000       0.10639518      -0.04952320      -0.21493705
B        1.60940453       0.17557040      -2.99225697      -0.00156743       0.00107241      -0.00248467
B        0.66104893      -1.31423600      -3.01807938      -0.00314108       0.00050636       0.00051488
B       -1.06209315      -0.85442280      -3.05305693       0.00346351      -0.00298576      -0.00071993
B        0.13688186       0.11825418      -3.95808084       0.00048763      -0.00158946       0.00019298
B        0.50141351       1.52989126      -3.03046117       0.00167202      -0.00100741      -0.00107396
C       -0.40000000       1.32300000      -1.56800000      -0.17093351       0.25719792      -0.26765984
B        1.34250649      -0.74285213      -1.48504716       0.00154388      -0.00629316      -0.00394900
B       -0.32128835      -1.42837410      -1.52498162      -0.00007078      -0.00198463      -0.00489883
B       -1.42099921      -0.01708073      -1.52483575      -0.00117525      -0.00127749       0.00103994
B       -1.13544861       0.90872819      -3.03657961      -0.00008447      -0.00115534      -0.00364252
Co       0.00000000       0.00000000       0.00000000       0.09817657      -0.34147179       0.06716821
H        0.11449750       2.41903386       1.07783047       0.00002155       0.00563821      -0.00268336
H       -1.35836397       2.26006881       3.42927133       0.00041430      -0.00176190       0.00003345
H       -2.28629774      -0.69936114       3.62929238       0.00107570      -0.00015700      -0.00070052
H        0.22845001      -2.44308124       3.60102676      -0.00035841      -0.00056595       0.00064804
H        0.17817539       0.16115194       5.15562375       0.00009945       0.00040942       0.00037493
H        1.63879480       2.28470272       3.34734284      -0.00169188      -0.00162366      -0.00102875
H        2.29155947       0.91532354       1.06753580       0.00199574       0.00043948      -0.00115196
H       -2.34909320       0.97228590       1.08124265      -0.00100206       0.00160599       0.00414905
H       -1.41533543      -2.12407705       1.16045969      -0.00083154       0.00095318      -0.00140182
H        1.79254711      -1.88352372       1.06192939       0.00175902      -0.00187926       0.00200936
H        2.66914961      -0.54960171       3.41585519      -0.00049847       0.00069793       0.00071619
H        1.85810561       1.59564393      -1.06934977       0.00271036       0.00302850       0.00234105
H        2.72342426       0.31616549      -3.39094500      -0.00158575      -0.00021055      -0.00051145
H        1.06750248      -2.29907646      -3.55614231      -0.00242757       0.00270563       0.00175729
H       -1.88646884      -1.51018870      -3.61457675       0.00069873       0.00049707       0.00174101
H        0.15746389       0.11395322      -5.14765412      -0.00112606       0.00004676       0.00136176
H        0.79600619       2.63001992      -3.36527944      -0.00043812      -0.00048941       0.00016984
H       -0.70244976       2.26797800      -1.10588460      -0.00121669       0.00383333       0.00216907
H        2.33543844      -1.21069962      -1.01760098       0.00402490      -0.00056775      -0.00559062
H       -0.62121002      -2.51087904      -1.11459840       0.00209863       0.00113653       0.00198702
H       -2.53089593       0.08387265      -1.09364487      -0.00176255      -0.00023394      -0.00009172
H       -2.01754331       1.58888970      -3.45991129      -0.00106026       0.00113317       0.00015461
