45
Properties=species:S:1:pos:R:3:forces:R:3 charge=-1 spin=1 energy=-242.2764434814453 free_energy=-242.2764434814453 stress="-5.170273453813934e-08 1.1859098592026385e-08 -4.691944255341696e-08 1.1859098592026385e-08 -1.0505003444905014e-07 4.348803983589278e-08 -4.691944255341696e-08 4.348803983589278e-08 -2.0340439732535742e-07" pbc="F F F"
C        0.94327096       1.08311490       1.55400000       0.09622988       0.18371306       0.30536008
B        0.22095351       1.50241946       3.02603032      -0.00114054      -0.00181845       0.00049116
B       -1.23392022       0.50354041       3.07620229      -0.00003536       0.00021601       0.00105014
B       -0.70752341      -1.20134148       3.05295338      -0.00026646       0.00134423      -0.00130319
B        0.23868406       0.01144413       3.97083606      -0.00186063      -0.00046635      -0.00217621
B        1.61714044       0.44246856       3.02597146      -0.00290676      -0.00119601       0.00076419
C        1.42873844      -0.43538084       1.56400000       0.01839849      -0.09950598       0.11744834
B       -0.73158314       1.23809396       1.54389999      -0.00095145       0.00274840      -0.00190344
B       -1.35193279      -0.44653637       1.56889545       0.00212392       0.00163478      -0.00205663
B        0.11085968      -1.47494178       1.48205330      -0.00666083       0.00144857       0.00262330
B        1.05766938      -1.21319358       3.01243660      -0.00226425       0.00083579      -0.00050050
C        1.14300000       0.92400000      -1.55300000       0.08825769       0.00811055      -0.23137936
B        1.61305090       0.19643500      -3.00121756      -0.00235470      -0.00084482      -0.00130441
B        0.66998483      -1.29472052      -3.04678985       0.00004438       0.00064236      -0.00140031
B       -1.05453835      -0.84010356      -3.07253733       0.00022143       0.00004157       0.00154895
B        0.13919751       0.14800283      -3.96985502      -0.00146502      -0.00133371       0.00184018
B        0.49957679       1.54857225      -3.02766458      -0.00209316      -0.00231344      -0.00025267
C       -0.40000000       1.32300000      -1.56800000      -0.18988836       0.28946501      -0.24410829
B        1.34686536      -0.73943799      -1.50835765       0.00311226      -0.00233230       0.00242794
B       -0.30790115      -1.43275262      -1.56226513       0.00069088       0.00318614       0.00243308
B       -1.40644445      -0.02662101      -1.51909609       0.00142276      -0.00540820      -0.00300064
B       -1.13455988       0.92192842      -3.04009221       0.00007740      -0.00156557       0.00182756
Co       0.00000000       0.00000000       0.00000000       0.00621104      -0.37958091       0.05229284
H        1.58835322       1.83178703       1.08449231       0.00279384       0.00237206      -0.00348674
H        0.33764895       2.61525416       3.43613054      -0.00063531       0.00067163       0.00059119
H       -2.21653352       0.85973856       3.65217436      -0.00305177       0.00142036      -0.00235894
H       -1.31333112      -2.07069066       3.60302045      -0.00251348       0.00091566      -0.00324419
H        0.25902816       0.00855514       5.16062795      -0.00335694      -0.00115222      -0.00276551
H        2.70874376       0.78268268       3.34521470      -0.00041330      -0.00052229       0.00129774
H        2.36268572      -0.69293324       1.05962239       0.00810961      -0.00177950      -0.00475623
H       -1.24817245       2.21695779       1.08862770       0.00350204       0.00119880      -0.00545625
H       -2.43143303      -0.77444616       1.17221885      -0.00413048       0.00298239      -0.00453722
H        0.23968798      -2.57323216       1.03086304      -0.00081133      -0.00146503      -0.00008702
H        1.76664332      -2.08698550       3.40504600      -0.00174324      -0.00125688      -0.00022958
H        1.85314830       1.60126538      -1.06995076       0.00231375       0.00282687       0.00331246
H        2.72753095       0.34557756      -3.39541297      -0.00004795      -0.00003992      -0.00170448
H        1.07837467      -2.26961409      -3.60043367       0.00053539      -0.00258520       0.00161526
H       -1.88183300      -1.48671576      -3.64054519      -0.00000806      -0.00263886       0.00376734
H        0.16033936       0.15801478      -5.15958574      -0.00260364      -0.00258259       0.00258410
H        0.79275827       2.65303792      -3.34940004      -0.00141287      -0.00009799      -0.00124303
H       -0.70782476       2.25690799      -1.08843103      -0.00213032       0.00756980       0.00471267
H        2.33461658      -1.21580155      -1.03372390       0.00090481       0.00447204       0.00378177
H       -0.59223235      -2.51967278      -1.15575301       0.00313479      -0.00382100       0.00357004
H       -2.51984459       0.06080060      -1.09219701      -0.00152911      -0.00152729       0.00297935
H       -2.02262269       1.60157361      -3.45235814      -0.00180873      -0.00198139       0.00093465
