45
Properties=species:S:1:pos:R:3:forces:R:3 charge=-1 spin=1 energy=-242.22523498535156 free_energy=-242.22523498535156 stress="-4.230284744721757e-08 1.9417921492959067e-08 -3.45956010505688e-08 1.9417921492959067e-08 -1.0140563233562716e-07 2.9752991181908328e-08 -3.45956010505688e-08 2.9752991181908328e-08 -2.0007550460832135e-07" pbc="F F F"
C        0.42117838       1.37313756       1.55400000       0.02721661       0.23938105       0.26413000
B       -0.41272139       1.46235598       3.02219217      -0.00026537      -0.00059399       0.00028357
B       -1.34071952      -0.03664462       3.06581071       0.00046647      -0.00226649       0.00142093
B       -0.17054798      -1.38577046       3.04422142       0.00212745       0.00023389       0.00218268
B        0.20191070       0.10348420       3.96466107       0.00372519       0.00085570      -0.00140358
B        1.29303580       1.05707819       3.02452991      -0.00206606      -0.00049679       0.00265525
C        1.48230285       0.18338009       1.56400000       0.02365749      -0.12711072       0.12090564
B       -1.17434087       0.84008502       1.53588615       0.00161977      -0.00059947      -0.00399025
B       -1.05780494      -0.95289432       1.55501223       0.00252384      -0.00000131      -0.00496818
B        0.69911385      -1.30737495       1.48834335       0.00300086      -0.00335038       0.00866391
B        1.45082744      -0.68463736       3.00723232      -0.00127594       0.00060593       0.00101693
C        1.14300000       0.92400000      -1.55300000       0.11639427       0.04386503      -0.19196686
B        1.61353546       0.18993645      -2.99558063       0.00011790      -0.00226010      -0.00244556
B        0.67738390      -1.30331291      -3.03003234      -0.00333938      -0.00192280       0.00014073
B       -1.05077395      -0.85505131      -3.05874867      -0.00032993       0.00108095      -0.00069614
B        0.13866417       0.13100235      -3.96123023      -0.00117292       0.00128826       0.00113558
B        0.49614521       1.53930051      -3.02742345      -0.00238044      -0.00226780      -0.00163811
C       -0.40000000       1.32300000      -1.56800000      -0.20785142       0.22371741      -0.25361738
B        1.35427688      -0.73836256      -1.49504089      -0.00226709      -0.00202745       0.00552469
B       -0.30400836      -1.43365655      -1.54107717      -0.00174510       0.00406545       0.00809102
B       -1.41098625      -0.02982260      -1.52132764      -0.00420547       0.00019791      -0.00793736
B       -1.13775602       0.90824394      -3.03396982       0.00242834      -0.00000954       0.00015891
Co       0.00000000       0.00000000       0.00000000       0.04025085      -0.36842370       0.04649394
H        0.70469796       2.31885952       1.08001486      -0.00494220       0.00583221      -0.00066439
H       -0.75461378       2.52635175       3.43663199      -0.00144829      -0.00014672      -0.00257726
H       -2.38610398      -0.10865987       3.63723431      -0.00187144      -0.00081708      -0.00134987
H       -0.38243260      -2.42534464       3.59180733       0.00182096       0.00023843       0.00066734
H        0.21899041       0.10370954       5.15439795      -0.00205919       0.00151746      -0.00308371
H        2.15262243       1.80873605       3.34986000      -0.00216657      -0.00041123      -0.00067335
H        2.44212811       0.32407697       1.05898041       0.00382718       0.00692858       0.00018452
H       -2.03172488       1.52520725       1.05996356      -0.00258391      -0.00400163       0.00210889
H       -1.91930478      -1.69191946       1.17676035       0.00552636      -0.00584769      -0.00138862
H        1.26553445      -2.25073937       1.02378387       0.00148595      -0.00026506       0.00468756
H        2.45039334      -1.19817411       3.40419428      -0.00183479       0.00257461       0.00089201
H        1.85358984       1.60117208      -1.06835188       0.00559884      -0.00227580       0.00049636
H        2.72551315       0.34211915      -3.39619711       0.00247055      -0.00203831       0.00210315
H        1.08802682      -2.28048953      -3.57848126       0.00050658      -0.00260848       0.00364871
H       -1.87243072      -1.51254266      -3.62269986      -0.00053465       0.00094817       0.00130531
H        0.15529597       0.13525105      -5.15093127       0.00191674      -0.00338423       0.00255623
H        0.78530937       2.64275184      -3.35709439       0.00079153      -0.00401801      -0.00087270
H       -0.70995623       2.26062668      -1.09491730       0.00200793       0.00180550       0.00021213
H        2.33129385      -1.19724339      -0.98333264      -0.00055447      -0.00308227      -0.00234168
H       -0.57987564      -2.52715155      -1.14357755      -0.00761843       0.00339641       0.00184420
H       -2.52089583       0.06394137      -1.08671900      -0.00066224       0.00372551      -0.00087596
H       -2.02756261       1.58295628      -3.45082860       0.00369377      -0.00203089      -0.00101918
