45
Properties=species:S:1:pos:R:3:forces:R:3 charge=-1 spin=1 energy=-242.3061981201172 free_energy=-242.3061981201172 stress="2.889431804931064e-08 1.1033038482821667e-08 -3.180248597800528e-08 1.1033038482821667e-08 3.187993513620313e-08 4.3412754280325316e-08 -3.180248597800528e-08 4.3412754280325316e-08 4.230220085332803e-08" pbc="F F F"
C        1.43787660       0.36209493       1.59638713       0.00488141      -0.00087184       0.00198159
B        1.08665204       1.11714792       3.04900076       0.00264569       0.00487963       0.00917140
B       -0.68052908       1.11596217       3.11059396      -0.00786880      -0.00143500       0.00429782
B       -1.21256106      -0.58726717       3.10663674      -0.00396411      -0.00555134      -0.00586641
B        0.26658952      -0.12242541       4.00214998      -0.00447471      -0.00629377       0.00061061
B        1.63776250      -0.55227450       3.03784769      -0.00217208      -0.00074322       0.00493874
C        0.95561150      -1.17020837       1.58867588       0.03331056       0.00467255      -0.03274201
B        0.12869289       1.41586404       1.56162164       0.00773638       0.01572898      -0.01969603
B       -1.35149020       0.38675345       1.63600000       0.09831059       0.07778594      -0.12817714
B       -0.71017935      -1.26820235       1.50625875      -0.00827177       0.01039985      -0.00830549
B        0.23431891      -1.59806985       3.04218715       0.00394154       0.00172199       0.01143712
C        1.12901168       0.97422525      -1.58682214       0.01379816       0.00243035      -0.00587797
B        1.62393027       0.24993282      -3.01654562       0.00460206       0.00338588      -0.00845872
B        0.70550848      -1.25787458      -3.07113285       0.00012508      -0.00447953      -0.00511581
B       -1.02474326      -0.82489484      -3.10654325      -0.00334242      -0.00055978       0.00528338
B        0.15866542       0.18037866      -3.99967177      -0.00435145      -0.00115438       0.00140379
B        0.49293154       1.59161385      -3.05581193      -0.00933853      -0.00167179      -0.00854257
C       -0.42688910       1.36458431      -1.62276038       0.01342382       0.02173117       0.03144509
B        1.34384164      -0.68894580      -1.51571984       0.02594730      -0.00007735       0.02052504
B       -0.27500000      -1.43300000      -1.61500000      -0.01628435       0.14339629       0.10018386
B       -1.38193624      -0.00773876      -1.54211803      -0.00006333      -0.01517746       0.00886368
B       -1.13591125       0.94034616      -3.08202928       0.00426230       0.00038078      -0.00903341
Co       0.00000000       0.00000000       0.00000000      -0.03774594      -0.21256536       0.02989181
H        2.37160696       0.61080053       1.08185377      -0.01117170      -0.00619480       0.03643945
H        1.81021374       1.97495977       3.45272892      -0.00564592      -0.00187886       0.00544228
H       -1.27328302       1.97743021       3.68675879      -0.00179462      -0.00874628       0.00238701
H       -2.19357693      -0.95808065       3.67831485       0.00317392      -0.01063395      -0.01020233
H        0.29744297      -0.13184659       5.19194164      -0.00241428      -0.00362636       0.00332391
H        2.73165518      -0.89876012       3.34471106      -0.00754684       0.00264040       0.00695924
H        1.56738038      -1.90014735       1.05221890       0.01568098       0.00155725       0.02213150
H        0.25851212       2.52133595       1.11716201      -0.02004694      -0.02349677      -0.01186686
H       -2.42256414       0.72867652       1.22900898      -0.00791548      -0.00785249      -0.00195038
H       -1.23414958      -2.25434957       1.08013200       0.01017252       0.00156917      -0.01403997
H        0.32614730      -2.72058125       3.43199948      -0.00665864      -0.00979751       0.00200567
H        1.82006225       1.64775273      -1.06936627      -0.01909718      -0.00267945      -0.03671348
H        2.74177262       0.40745992      -3.40101576      -0.00592604       0.00504021       0.00254412
H        1.14214561      -2.22031414      -3.62657000      -0.00252926       0.00511114       0.00010351
H       -1.84297892      -1.47802574      -3.68129378      -0.00217381       0.00349766       0.00850334
H        0.18541851       0.19028187      -5.18943491       0.00290202      -0.00276202      -0.00361325
H        0.77876360       2.69822954      -3.37840533      -0.00660200      -0.00412917      -0.00677089
H       -0.74180797       2.28193304      -1.11737130      -0.00082965       0.01642262      -0.01240805
H        2.34327514      -1.14188900      -1.03428233      -0.03336461       0.01166398       0.00309542
H       -0.55992025      -2.50963794      -1.18231670      -0.00737355      -0.00179874      -0.01347612
H       -2.50799798       0.06080889      -1.14464974       0.00568250       0.00745885       0.02696284
H       -2.03435008       1.60004819      -3.50433554      -0.01162849      -0.00729752      -0.00707531
