45
Properties=species:S:1:pos:R:3:forces:R:3 charge=-1 spin=1 energy=-54314.52391340035 free_energy=-54314.52391340035 stress="0.8816856145858765 0.035878315567970276 -0.8471537232398987 0.035878315567970276 0.6511732935905457 0.008004534989595413 -0.8471537232398987 0.008004534989595413 1.606217622756958" pbc="F F F"
C       -1.34135047      -0.51349481       1.55400000       0.16771065       0.08950093      -0.20727742
B       -0.89485521      -1.23329729       3.00898749      -0.00369272       0.00094198      -0.00060560
B        0.85521217      -1.01573225       3.10397970       0.01752451       0.01756692      -0.00086442
B        1.18014061       0.72471200       3.10305598       0.00406810       0.01173256      -0.01122520
B       -0.23408387       0.08817939       3.98806369      -0.00163865       0.00242262      -0.00674010
B       -1.66367603       0.35782164       2.96562520      -0.00525425       0.00026171      -0.00302431
C       -1.05710224       1.05517053       1.56400000       0.16428015      -0.41339535      -0.24389471
B        0.10204886      -1.42380839       1.53810922       0.01045259       0.00998757       0.00207610
B        1.41273225      -0.22231218       1.59781247      -0.02171483       0.01726368      -0.00158946
B        0.60081794       1.36193129       1.54578228      -0.00670139       0.00101274      -0.00916777
B       -0.36813364       1.56779747       3.02194850      -0.00358753       0.00010386      -0.00685267
C        1.14300000       0.92400000      -1.55300000      -0.43582317      -0.34655815       0.29413843
B        1.60151766       0.15742116      -2.97283744       0.00767076       0.00321992       0.00218587
B        0.63384993      -1.31720107      -3.03859225      -0.01973384      -0.00937835      -0.00020318
B       -1.07217163      -0.84867953      -3.08753608      -0.00991303       0.00190354       0.01117694
B        0.13633376       0.12238736      -3.97158143       0.00491962       0.00061798       0.00679303
B        0.50900833       1.54830908      -2.97757546       0.00509058       0.00273803       0.00280907
C       -0.40000000       1.32300000      -1.56800000       0.14521600       0.13976753      -0.01502240
B        1.30012859      -0.77388890      -1.46940074      -0.01569075      -0.00200580      -0.00389282
B       -0.35248418      -1.43305150      -1.54821239      -0.00622632       0.02260197      -0.00055136
B       -1.42814136      -0.01561637      -1.56233559       0.00509100       0.00690839       0.00723692
B       -1.14419719       0.91580030      -3.04206448       0.00417722      -0.00041823       0.00832589
Co       0.00000000       0.00000000       0.00000000       0.01719830       0.35517645       0.16641960
H       -2.23718114      -0.84274661       1.05554000      -0.00932987      -0.00192599      -0.01311807
H       -1.52645441      -2.15346301       3.40095736       0.00124013      -0.00200807       0.00395607
H        1.53552823      -1.80644921       3.66558827      -0.00471254       0.01127433       0.00935388
H        2.10575036       1.21187398       3.66096092      -0.01076486       0.00848717       0.00739063
H       -0.32259815       0.10184859       5.17090255      -0.00914814       0.00650959      -0.00963176
H       -2.78466098       0.56608220       3.27760359      -0.00544204       0.00209260      -0.00277472
H       -1.77802344       1.68266415       1.06398399       0.00104473       0.00663808      -0.01576910
H        0.10911483      -2.53766027       1.13629032       0.01815636       0.01634574      -0.01382130
H        2.53267980      -0.42109758       1.26307849       0.01996377       0.01356806      -0.02797739
H        1.00484590       2.37855002       1.07660129       0.00620543       0.00481506      -0.02680472
H       -0.62050937       2.65503830       3.41829987      -0.00632792       0.00105146      -0.00688629
H        1.81509628       1.59260313      -1.04416674       0.01094050       0.01290679       0.01539535
H        2.71038331       0.30356254      -3.35765734       0.00849947      -0.00354676       0.00193277
H        1.05405931      -2.29049562      -3.56705030      -0.00075659       0.00551224      -0.00350685
H       -1.90596811      -1.47765132      -3.64840395       0.00460050       0.01010563      -0.00864431
H        0.17860192       0.18063645      -5.15561858       0.00817912       0.00589235       0.00958844
H        0.80079392       2.64495590      -3.30920493       0.00444143       0.00270660       0.00194712
H       -0.65884837       2.26600122      -1.11109881      -0.00682414       0.00169900       0.01348273
H        2.28339221      -1.26857225      -1.03292991      -0.02435570      -0.00352882       0.02359171
H       -0.66391376      -2.51934935      -1.18938726      -0.02312290      -0.00922847       0.02774205
H       -2.52739333       0.08952459      -1.11930953      -0.01406947      -0.00214912       0.02340678
H       -1.99941342       1.62033756      -3.46133576       0.00815950       0.00081023       0.00089648
