45
Properties=species:S:1:pos:R:3:forces:R:3 charge=-1 spin=1 energy=-54314.60119916695 free_energy=-54314.60119916695 stress="0.1432516723871231 0.000313104857923463 -0.1391681730747223 0.000313104857923463 0.2399066537618637 -0.36231112480163574 -0.1391681730747223 -0.36231112480163574 1.2788541316986084" pbc="F F F"
C        0.18652649      -1.45267677       1.47134127       0.00577818       0.00424266      -0.01350861
B        0.97441718      -1.27920859       2.96403851       0.00094255      -0.00300073      -0.03119796
B        1.22668533       0.46256871       3.13156229      -0.01126494       0.00833566       0.00528103
B       -0.35963804       1.24051599       3.13221742      -0.02304866       0.00542768      -0.01498382
B       -0.14177989      -0.33067570       3.95775299      -0.00424889       0.00838011      -0.01802285
B       -0.75866200      -1.59084358       2.86731746      -0.00686251       0.00728098      -0.03520709
C       -1.24352931      -0.76104105       1.47567923      -0.00372818       0.00005094      -0.00083323
B        1.43643582      -0.31357982       1.54459562       0.00151204      -0.00587260      -0.00385040
B        0.63314699       1.25508123       1.63600000      -0.11606699       0.15053912       0.08986462
B       -1.11838965       0.92763269       1.55173741      -0.00632196      -0.00093664      -0.00343988
B       -1.58187873      -0.02712033       2.97224279      -0.00457276      -0.00047334      -0.01921273
C        1.07957977       0.97033436      -1.46767383       0.00514332      -0.00770510       0.01417747
B        1.61011506       0.30586476      -2.93685662       0.00189181       0.00353324       0.03119801
B        0.71588484      -1.21205699      -3.09208340      -0.01264381       0.00138159      -0.00611279
B       -1.00685562      -0.82159682      -3.13459296      -0.02253934       0.01259390       0.01614455
B        0.16580582       0.24772577      -3.95859780      -0.00722046      -0.00315538       0.01848600
B        0.45594965       1.63886142      -2.89178735      -0.01047812      -0.00025615       0.03533031
C       -0.46926613       1.32950765      -1.51043590      -0.00218832       0.00296140       0.00165960
B        1.33417969      -0.70642608      -1.50230965       0.00464698       0.00217573       0.00296361
B       -0.27500000      -1.43300000      -1.61500000      -0.11953366       0.16456890      -0.07884117
B       -1.42805671      -0.06926132      -1.57570404      -0.00511086       0.00400018       0.00359132
B       -1.16393237       0.93526119      -3.01246593      -0.00362607       0.00437325       0.01929437
Co       0.00000000       0.00000000       0.00000000       0.32290950      -0.36560896      -0.02614193
H        0.27263921      -2.38552267       0.94024019       0.00272203       0.00652129      -0.01129178
H        1.68563369      -2.15194969       3.32853549      -0.00638565       0.00510046       0.00019841
H        2.16214616       0.88079356       3.72619803       0.00225686       0.00650848      -0.00554705
H       -0.59526950       2.23312529       3.73604478      -0.00570149       0.00642662      -0.01141055
H       -0.20241798      -0.46743163       5.13472818      -0.00997587       0.01000034      -0.01649113
H       -1.26713500      -2.62829013       3.11794967       0.00291196       0.01642065      -0.00618283
H       -2.04045145      -1.26789201       0.95658455       0.01463081       0.01125256      -0.02481626
H        2.51764287      -0.57493081       1.14241553       0.01002272       0.02188064      -0.04264257
H        1.13041318       2.29133384       1.31731771      -0.00298313      -0.01029592      -0.02807467
H       -1.98651798       1.60700943       1.10951047       0.02635097       0.00548423      -0.03061255
H       -2.70318802      -0.00677861       3.35206110       0.00423158       0.00506057      -0.01703128
H        1.72350860       1.65462046      -0.94122903      -0.00054519      -0.00509530       0.01254365
H        2.71841632       0.53032051      -3.28574879      -0.00862411      -0.00042917       0.00131090
H        1.19547965      -2.13478168      -3.65984790      -0.00151645      -0.00626854       0.00536361
H       -1.80354841      -1.45581197      -3.74182463      -0.00731218       0.00037316       0.01121959
H        0.22748989       0.36819275      -5.13730237      -0.01356777       0.00019720       0.01705316
H        0.71655585       2.75947336      -3.16375453      -0.00690441      -0.01402673       0.00745777
H       -0.78308618       2.23581356      -1.01888643       0.00395691      -0.01489361       0.02492554
H        2.33209938      -1.17245507      -1.07080416      -0.00718435      -0.02295545       0.04363757
H       -0.54575270      -2.54295496      -1.27490066       0.00324691       0.01207825       0.03140726
H       -2.53886977      -0.04252042      -1.15619581       0.01701795      -0.02129465       0.03513927
H       -2.04211032       1.61452500      -3.42393920      -0.00001684      -0.00488152       0.01720540
