45
Properties=species:S:1:pos:R:3:forces:R:3 charge=-1 spin=1 energy=-54314.38068105477 free_energy=-54314.38068105477 stress="1.0517021417617798 -0.3686447739601135 0.2213456779718399 -0.3686447739601135 0.8331083059310913 -0.5791333317756653 0.2213456779718399 -0.5791333317756653 0.8540027141571045" pbc="F F F"
C        1.32261265       0.55999446       1.55400000       0.08977602      -0.20943132      -0.05405547
B        0.87586432       1.27958148       3.01632971      -0.00306513      -0.00020165       0.00493370
B       -0.87385480       1.03558020       3.10151840      -0.00132277       0.00066336      -0.00037093
B       -1.17082613      -0.70994392       3.08257221       0.00185547       0.00295985       0.00503400
B        0.22859806      -0.05538551       3.98161283       0.00679722      -0.00355803       0.00090343
B        1.66722751      -0.30020811       2.96833204       0.00382885      -0.00046933      -0.00389904
C        1.09328320      -1.01763541       1.56400000      -0.64089656       0.50055331      -0.23754150
B       -0.11641674       1.44460212       1.55429506      -0.00310437       0.00270402      -0.00316396
B       -1.42039850       0.23037576       1.58666595      -0.00290493       0.00474897      -0.00321237
B       -0.58295024      -1.34944660       1.51679280       0.00136582      -0.00463566       0.00089900
B        0.39086201      -1.52655387       3.00824774       0.00191084      -0.00185996      -0.00323129
C        1.14300000       0.92400000      -1.55300000      -0.39585942       0.03778260       0.16549693
B        1.63542923       0.19987827      -2.99274670       0.00102430      -0.00131880      -0.00120065
B        0.69769820      -1.29597171      -3.07252323      -0.00284832      -0.00056391      -0.00233271
B       -1.01813920      -0.86155592      -3.10105690      -0.00223608       0.00401789      -0.00306452
B        0.16830788       0.14352706      -3.98256226       0.00054930       0.00506366      -0.00205487
B        0.51155899       1.56389266      -2.97442338      -0.00314587       0.00413481      -0.00126196
C       -0.40000000       1.32300000      -1.56800000       0.03816789      -0.19394980       0.13991970
B        1.34051716      -0.74494994      -1.51629773      -0.00057239      -0.00455638       0.00623104
B       -0.29374181      -1.44747091      -1.57923064       0.00172441      -0.00512060       0.00187472
B       -1.40679744      -0.05296087      -1.55366700      -0.00158880       0.00550292       0.00092741
B       -1.12626586       0.89728957      -3.03798908      -0.00155759       0.00240180       0.00274808
Co       0.00000000       0.00000000       0.00000000       0.90927660      -0.15247469      -0.00720980
H        2.22697761       0.90331678       1.07602250      -0.00528359      -0.00229438      -0.00591145
H        1.50110587       2.20517739       3.40921225       0.00157899      -0.00057918      -0.00120177
H       -1.56906686       1.81157653       3.66575783       0.00064363       0.00116530       0.00362555
H       -2.08255058      -1.21934293       3.64185712       0.00139463      -0.00202522       0.00398994
H        0.31335994      -0.07745661       5.16411423       0.00305990       0.00076796       0.00254588
H        2.79128018      -0.48478102       3.28406275       0.00340154      -0.00022164       0.00020037
H        1.81533127      -1.63336798       1.05800905      -0.00200572       0.00293055      -0.00399616
H       -0.12635323       2.54817718       1.10481360      -0.00128951      -0.00409043      -0.00346833
H       -2.54058185       0.42123287       1.24562116       0.00311596      -0.00045625      -0.00088877
H       -0.98197018      -2.37936597       1.09579585      -0.00234814      -0.00265850      -0.00553763
H        0.65038307      -2.61043306       3.40548946       0.00278992       0.00021141       0.00155548
H        1.80749197       1.61540969      -1.05976812      -0.00366355      -0.00422396       0.00554579
H        2.74346381       0.38507754      -3.36644538       0.00240629       0.00294573      -0.00252234
H        1.13709050      -2.25652535      -3.60929117       0.00082791       0.00079796      -0.00589111
H       -1.83957700      -1.49384760      -3.67439520      -0.00190184       0.00181323      -0.00521866
H        0.20505920       0.21933330      -5.16522284       0.00026024       0.00517939      -0.00387715
H        0.78773320       2.66891860      -3.28974892       0.00147183       0.00514201       0.00097601
H       -0.67970877       2.25105392      -1.09897488       0.00115376      -0.00219322       0.00373101
H        2.33048169      -1.20576447      -1.04059269      -0.00407507       0.00029244       0.00471757
H       -0.57261960      -2.54565150      -1.22979854       0.00166473       0.00387955       0.00176479
H       -2.51799796       0.01503352      -1.15487729      -0.00214391      -0.00161130       0.00311620
H       -1.99605820       1.58227832      -3.45517528       0.00176750       0.00283513       0.00037574
