45
Properties=species:S:1:pos:R:3:forces:R:3 charge=-1 spin=1 energy=-54314.3551740815 free_energy=-54314.3551740815 stress="1.1086937189102173 -0.30829453468322754 0.2354663610458374 -0.30829453468322754 0.705375075340271 -0.5039332509040833 0.2354663610458374 -0.5039332509040833 0.9826928973197937" pbc="F F F"
C        1.28032759       0.65089113       1.55400000       0.07517695      -0.20155784      -0.04334350
B        0.78680856       1.33683262       3.01731500      -0.00098839      -0.00075318      -0.00066225
B       -0.94077084       0.96645456       3.10668909       0.00298886       0.00363693      -0.00346456
B       -1.11019359      -0.79536017       3.08941776       0.00295601       0.00127133       0.00349927
B        0.24106303      -0.04042732       3.98498696       0.00313434      -0.00463250      -0.00233443
B        1.69015294      -0.18157250       2.96678058      -0.00051253      -0.00273569       0.00143337
C        1.16160668      -0.93889293       1.56400000      -0.60518765       0.47055638      -0.21773867
B       -0.21934022       1.43014757       1.55780235      -0.00487285      -0.00347351      -0.00180564
B       -1.43122172       0.12298074       1.59144451       0.00382728       0.00518092       0.00062239
B       -0.48153576      -1.39129955       1.52137942       0.00376752       0.00162910      -0.00502386
B        0.50576415      -1.49672493       3.01215646       0.00086900      -0.00195640      -0.00715420
C        1.14300000       0.92400000      -1.55300000      -0.42287236      -0.00239174       0.12284058
B        1.63282063       0.20441395      -2.99609724      -0.00112527      -0.00006224      -0.00078208
B        0.68941470      -1.28828724      -3.08223149       0.00328488       0.00152044       0.00321965
B       -1.02454164      -0.84865949      -3.10927514       0.00248576       0.00284249      -0.00362463
B        0.16606631       0.15663070      -3.98733456      -0.00344875       0.00507877       0.00253574
B        0.51298165       1.57134516      -2.97279295      -0.00377594       0.00155759       0.00108537
C       -0.40000000       1.32300000      -1.56800000       0.07082049      -0.11185905       0.14814827
B        1.33516027      -0.74695887      -1.52341731      -0.00522605      -0.00251025       0.00149952
B       -0.30251698      -1.44275117      -1.58738670       0.00581500       0.00361017       0.00184145
B       -1.40953367      -0.04512984      -1.55746649       0.00070447       0.00068321       0.00300474
B       -1.12690590       0.90928757      -3.04034981      -0.00028397       0.00235917       0.00743111
Co       0.00000000       0.00000000       0.00000000       0.86767673      -0.16799729      -0.01178400
H        2.15702296       1.05727988       1.07498374       0.00489272       0.00454664       0.00128459
H        1.34561741       2.30530365       3.40698141      -0.00190433       0.00032099       0.00050033
H       -1.68814780       1.69115969       3.67287903       0.00108250      -0.00438473      -0.00047394
H       -1.98134071      -1.36821485       3.65198125       0.00050492      -0.00247029       0.00010201
H        0.33096005      -0.05482165       5.16746006       0.00022639      -0.00147952      -0.00317847
H        2.82607235      -0.28535803       3.27752754      -0.00009404       0.00020735      -0.00118059
H        1.92549074      -1.50078599       1.05766041       0.00490628      -0.00651173      -0.00191205
H       -0.31039921       2.53085499       1.11204567      -0.00158858       0.00183131      -0.00244753
H       -2.56369063       0.23034511       1.25658852      -0.00280364       0.00031158      -0.00184499
H       -0.80333339      -2.44829211       1.10122661      -0.00229372       0.00115931      -0.00142420
H        0.84552230      -2.55860294       3.40866499       0.00000880       0.00172777      -0.00208318
H        1.80826756       1.61325061      -1.05891573       0.00597464       0.00318350      -0.00074133
H        2.74131399       0.38852767      -3.36935352       0.00089561      -0.00195018       0.00000030
H        1.12702773      -2.24723507      -3.62373880      -0.00358228       0.00214278       0.00038323
H       -1.84699579      -1.47668817      -3.68596088      -0.00195755       0.00222762      -0.00012828
H        0.20371055       0.23805211      -5.16990812      -0.00065195       0.00069199       0.00362588
H        0.79103478       2.67816572      -3.28104228       0.00100570      -0.00050342       0.00102780
H       -0.67780324       2.25014693      -1.09655722      -0.00253705       0.00441484       0.00076172
H        2.32451494      -1.21450404      -1.05468242       0.00092909      -0.00148775       0.00285736
H       -0.58670757      -2.54114094      -1.24512625      -0.00104361      -0.00272953       0.00158134
H       -2.52054646       0.02709029      -1.15899529      -0.00037212      -0.00072371       0.00177671
H       -1.99427592       1.60028495      -3.45304590       0.00318867      -0.00052143       0.00206956
