45
Properties=species:S:1:pos:R:3:forces:R:3 charge=-1 spin=1 energy=-242.23741149902344 free_energy=-242.23741149902344 stress="-8.899790771010885e-08 2.848647540076854e-08 3.993615038666576e-08 2.848647540076854e-08 -5.157697557933716e-08 2.307263891054845e-08 3.993615038666576e-08 2.307263891054845e-08 -2.042582138983562e-07" pbc="F F F"
C       -1.20385205       0.78335065       1.55400000      -0.25849697       0.06358519       0.21202697
B       -1.52579660       0.00119791       3.01881122      -0.00082751      -0.00456632       0.00167191
B       -0.33070698      -1.29618486       3.06794390       0.00723889      -0.00032434       0.00097686
B        1.28426846      -0.53207091       3.06087170      -0.00232488       0.00293874       0.00336815
B       -0.06343073       0.22559348       3.96891044       0.00542288       0.00110811      -0.00155210
B       -0.67944545       1.53168581       3.02102169       0.00322097       0.00146273       0.00378732
C        0.23230179       1.47542736       1.56400000       0.06062315       0.02190343       0.15893400
B       -1.10658306      -0.89810039       1.51140360       0.00095952      -0.00120208       0.00200585
B        0.63993974      -1.27083790       1.56969432       0.00288939       0.00309840      -0.00240049
B        1.46233340       0.33403245       1.52677435       0.00234231      -0.00326627       0.00001431
B        1.04446835       1.21583377       3.01681151       0.00075524      -0.00390399       0.00576491
C        1.14300000       0.92400000      -1.55300000       0.14653772      -0.01350421      -0.15956537
B        1.61576665       0.17079871      -2.98608363       0.00276321      -0.00408759       0.00112516
B        0.66812758      -1.31753361      -3.00975919      -0.00515828      -0.00371403       0.00230533
B       -1.05747193      -0.85822486      -3.05325637       0.00013815       0.00335301      -0.00153142
B        0.15003120       0.11105782      -3.95536222      -0.00560367       0.00091589       0.00112077
B        0.51147841       1.52482222      -3.03252635      -0.00630026       0.00032657      -0.00247372
C       -0.40000000       1.32300000      -1.56800000      -0.15781716       0.22427008      -0.28710780
B        1.32814031      -0.74535157      -1.45225795       0.00001243      -0.00033638      -0.00170156
B       -0.32277211      -1.43219524      -1.52741551      -0.00355363       0.00272465       0.00341727
B       -1.42933830      -0.01273090      -1.54552397      -0.00133246      -0.00305195       0.00069195
B       -1.13026926       0.90551294      -3.03702460       0.00261361      -0.00100391      -0.00264894
Co       0.00000000       0.00000000       0.00000000       0.20014714      -0.28547490       0.06150408
H       -2.03401826       1.29759213       1.05889292       0.00009932       0.00058609       0.00035296
H       -2.64704643      -0.05065492       3.41906899      -0.00377581      -0.00049073      -0.00090262
H       -0.55203388      -2.32578094       3.63043456       0.00082117       0.00125381       0.00064380
H        2.21896467      -1.01777160       3.62232840      -0.00238918       0.00398711       0.00024100
H       -0.06817546       0.24208305       5.15861947      -0.00075616       0.00103026      -0.00322308
H       -1.17115373       2.56367389       3.34116193      -0.00209415       0.00189361      -0.00109950
H        0.34870450       2.44769678       1.07439895       0.00036341      -0.00407250       0.00110516
H       -2.01384899      -1.53924836       1.06928131       0.00345537      -0.00298830      -0.00106231
H        1.13421931      -2.29063230       1.18707650       0.00470544       0.00271178       0.00117046
H        2.51614937       0.60658797       1.03371176       0.00253817       0.00293374       0.00394433
H        1.79616615       2.04550854       3.42548269      -0.00208999       0.00083508      -0.00043997
H        1.85603118       1.58727413      -1.05466571      -0.00098339      -0.00153097      -0.00288200
H        2.73400118       0.30265183      -3.37582946       0.00507191      -0.00131460       0.00192107
H        1.08114210      -2.30427577      -3.53978649       0.00039735      -0.00138938       0.00110754
H       -1.87619925      -1.51501887      -3.62172923       0.00145157       0.00250377       0.00015891
H        0.17060672       0.10441826      -5.14503731       0.00198683      -0.00129420       0.00194561
H        0.80587602       2.62408815      -3.37091966       0.00221865      -0.00063279       0.00032240
H       -0.69839483       2.27526241      -1.11610496       0.00123987      -0.00577974      -0.00318265
H        2.31926294      -1.20495047      -0.96943358      -0.00334445      -0.00301344       0.00228031
H       -0.62162084      -2.51725892      -1.12280012      -0.00565165       0.00218369      -0.00007051
H       -2.52626312       0.07901970      -1.07728961      -0.00129554       0.00253365      -0.00148840
H       -2.00664950       1.58844509      -3.46889294       0.00378165      -0.00119713      -0.00057600
