45
Properties=species:S:1:pos:R:3:forces:R:3 charge=-1 spin=1 energy=-54314.62782003182 free_energy=-54314.62782003182 stress="-0.09796922653913498 0.013280182145535946 -0.00022225540305953473 0.013280182145535946 -0.2171378880739212 -0.0014003891265019774 -0.00022225540305953473 -0.0014003891265019774 0.2575620114803314" pbc="F F F"
C        0.69902792      -1.28283754       1.46221630      -0.00277362      -0.00112607      -0.02471366
B        1.37483745      -0.83246834       2.95301241       0.00339817       0.00483231      -0.02653517
B        0.97346090       0.88255756       3.12389143      -0.00062023      -0.00590471      -0.00094877
B       -0.79122551       1.02597020       3.12154494      -0.00166463      -0.00282300       0.01190773
B       -0.01431238      -0.35656444       3.94301376      -0.00900271      -0.00940744       0.00081293
B       -0.12858004      -1.75344824       2.85174871      -0.00124403       0.00200237      -0.02495364
C       -0.88628128      -1.15445466       1.46018557       0.00386478      -0.00770279       0.00242950
B        1.45000701       0.23139334       1.53656392      -0.03410693       0.02151613       0.00320807
B        0.12665897       1.40002197       1.63600000      -0.05083814       0.18498829      -0.03863297
B       -1.38193200       0.46736533       1.54031596      -0.04215037      -0.01300946      -0.00479034
B       -1.46558754      -0.59949455       2.95364888      -0.00210322      -0.00644479       0.00758660
C        1.07241148       0.97444203      -1.45780863       0.00057378      -0.00073574       0.02370834
B        1.60857059       0.30946538      -2.92631326       0.00102188      -0.00661627       0.03146612
B        0.71804468      -1.21268055      -3.08478513       0.00217464       0.00774803       0.00313335
B       -1.00917587      -0.82446666      -3.12232331      -0.00048662       0.00555974      -0.01150016
B        0.16030512       0.24787252      -3.94256745      -0.00669308       0.01441181      -0.00006781
B        0.44643080       1.63817776      -2.87415922       0.00063756       0.00082655       0.02270744
C       -0.48122026       1.32445724      -1.49134010       0.00879466       0.00501204      -0.00611312
B        1.33497706      -0.69979301      -1.49614557      -0.04001929      -0.01012591       0.00085350
B       -0.27500000      -1.43300000      -1.61500000      -0.03272692       0.06816661       0.05013035
B       -1.43338145      -0.08358643      -1.56118568      -0.03878730       0.02342919       0.00237043
B       -1.17071010       0.93106385      -2.99074301      -0.00254423       0.00714969      -0.01066988
Co       0.00000000       0.00000000       0.00000000       0.26776624      -0.29797602      -0.02288894
H        1.12160089      -2.11424027       0.92454884      -0.01016321      -0.02179380      -0.00895606
H        2.35369890      -1.38695239       3.32024982      -0.01188570      -0.01544979      -0.00118448
H        1.68605810       1.61741483       3.72138490       0.00769876      -0.01302546      -0.00981102
H       -1.37980048       1.86047876       3.72211675       0.00680164       0.01772154       0.01329115
H       -0.02740000      -0.50976198       5.11846307      -0.00291286       0.00309660       0.00937413
H       -0.21958120      -2.90490865       3.10075115      -0.02247482       0.00536902       0.00347180
H       -1.43594128      -1.91585116       0.93159036      -0.01607914       0.01405275       0.00147858
H        2.53502885       0.38924600       1.08309424       0.02732959      -0.00702112      -0.00299180
H        0.21670010       2.54116240       1.29873671       0.00719378      -0.00069883      -0.00180079
H       -2.43460422       0.79681608       1.10672381       0.02616091       0.00754825      -0.00264124
H       -2.51555509      -0.99503470       3.32832938      -0.01825816       0.01636728       0.00979322
H        1.71611516       1.65328989      -0.92478453      -0.00394490       0.02369282       0.00819488
H        2.71539358       0.53868013      -3.27711152      -0.00997652       0.01937726      -0.00045314
H        1.19447990      -2.13622826      -3.65504961       0.00892644       0.01228133       0.00809431
H       -1.80914460      -1.45511391      -3.72749689      -0.00020987      -0.01502694      -0.01055782
H        0.21631783       0.37451388      -5.11993678      -0.00714493       0.00143730      -0.00794485
H        0.70718259       2.75815600      -3.14546154      -0.02280040       0.00483873      -0.00148191
H       -0.79028301       2.22763789      -0.99064035      -0.01792703      -0.01247607      -0.00230730
H        2.31533920      -1.16309766      -1.01489341       0.03165888      -0.00390466       0.00457710
H       -0.53337550      -2.54002484      -1.25443044       0.00617967      -0.00034913       0.00290720
H       -2.54437555      -0.07616260      -1.14854848       0.02340498      -0.01365638       0.00632804
H       -2.04780822       1.61167423      -3.39874056      -0.02404707      -0.00615151      -0.00588002
