45
Properties=species:S:1:pos:R:3:forces:R:3 charge=-1 spin=1 energy=-242.28125 free_energy=-242.28125 stress="-7.847577165875919e-08 1.3496611828145433e-08 -5.357830445973377e-08 1.3496611828145433e-08 -8.284067831709763e-08 9.365759723323208e-08 -5.357830445973377e-08 9.365759723323208e-08 -1.6675731728810206e-07" pbc="F F F"
C        1.40964050      -0.27533916       1.55400000       0.23203178      -0.00567389       0.31277123
B        1.41677476       0.55014940       3.03265967      -0.00256407       0.00138685       0.00365880
B       -0.17598971       1.31512581       3.08737691      -0.00103242      -0.00164165      -0.00028725
B       -1.39071571       0.00738094       3.05860575       0.00176716       0.00172620      -0.00151481
B        0.13559321      -0.21356971       3.97475001      -0.00102200      -0.00062017      -0.00248492
B        1.19624341      -1.18986434       3.02555686      -0.00160279       0.00066985       0.00423280
C        0.33731835      -1.45501420       1.56400000      -0.07530722      -0.07811405       0.01140162
B        0.70543162       1.25378146       1.55347581      -0.00260666       0.00221272       0.00014886
B       -1.06020770       0.95773778       1.59109658      -0.00184095       0.00174484       0.00089002
B       -1.21780596      -0.83170206       1.48657564      -0.00327124       0.00259855       0.00149512
B       -0.51809361      -1.53087836       3.01249418      -0.00279554       0.00303373       0.00391285
C        1.14300000       0.92400000      -1.55300000       0.11629824       0.05027887      -0.17410597
B        1.61880714       0.20267381      -3.00139640      -0.00181785      -0.00454672      -0.00516498
B        0.67741503      -1.29207854      -3.05080980      -0.00258838       0.00106633       0.00037034
B       -1.04762744      -0.83678843      -3.08054568       0.00250089      -0.00028867       0.00182509
B        0.14889634       0.15670191      -3.97279613      -0.00209992      -0.00040794       0.00214332
B        0.50599033       1.55607862      -3.02755835      -0.00319937      -0.00132082      -0.00535183
C       -0.40000000       1.32300000      -1.56800000      -0.17978561       0.28661758      -0.21812133
B        1.34403906      -0.74145152      -1.50690378      -0.00170448      -0.00180397      -0.00008830
B       -0.30160852      -1.43957760      -1.58286681      -0.00010871      -0.00221455      -0.00065276
B       -1.40396080      -0.02221102      -1.53276041      -0.00150174      -0.00514799      -0.00221942
B       -1.12814108       0.92930153      -3.04591097      -0.00063914      -0.00437592      -0.00449923
Co       0.00000000       0.00000000       0.00000000      -0.07387291      -0.25884947       0.06614183
H        2.37377824      -0.45763730       1.07063591      -0.00163262      -0.00001052      -0.00113358
H        2.43927402       1.00500210       3.44325072       0.00247256      -0.00030745      -0.00032724
H       -0.35521289       2.34050295       3.67129372       0.00180982       0.00053133      -0.00181925
H       -2.44544864       0.09326920       3.61189262       0.00135893       0.00209383      -0.00344340
H        0.14201849      -0.23598679       5.16500476      -0.00118301       0.00085396      -0.00457120
H        2.03709931      -1.96718088       3.33933181      -0.00035533      -0.00087535       0.00004588
H        0.57798224      -2.38296207       1.03760858      -0.00030715       0.00194249      -0.00284733
H        1.30450375       2.19077006       1.11112821       0.00102466       0.00180472      -0.00325087
H       -1.87727133       1.72513012       1.17083411       0.00023100      -0.00098132       0.00206164
H       -2.10515923      -1.48632755       1.02563035       0.00098389      -0.00156838      -0.00267661
H       -0.92391901      -2.58338858       3.39823491      -0.00201016       0.00097999      -0.00125323
H        1.84639406       1.59483222      -1.05080755      -0.00004220       0.00014240      -0.00145241
H        2.73536878       0.34990751      -3.39138595       0.00165281       0.00214355      -0.00001778
H        1.08909732      -2.26378765      -3.60789240       0.00126424       0.00153463       0.00103832
H       -1.87414992      -1.48009407      -3.65400433       0.00238501      -0.00002442       0.00337272
H        0.17145119       0.16591372      -5.16298339      -0.00108881      -0.00019247       0.00493495
H        0.80017450       2.66179628      -3.34456699      -0.00139570       0.00089136       0.00057796
H       -0.70696978       2.25183784      -1.07599154       0.00153476       0.00073240      -0.00102380
H        2.33518061      -1.21107559      -1.03089843       0.00017432       0.00106043       0.00899014
H       -0.58670291      -2.51499733      -1.14338992       0.00218478       0.00258775       0.00282525
H       -2.51972849       0.06096246      -1.11068284      -0.00103172       0.00201801       0.00345628
H       -2.01679028       1.60906559      -3.45757797      -0.00126715      -0.00168703       0.00201297
