45
Properties=species:S:1:pos:R:3:forces:R:3 charge=-1 spin=1 energy=-242.266845703125 free_energy=-242.266845703125 stress="-5.696072591376833e-08 2.481745120519463e-08 -1.617091349714883e-08 2.481745120519463e-08 -9.493382435721287e-08 1.1080668826934925e-07 -1.617091349714883e-08 1.1080668826934925e-07 -1.251174666094812e-07" pbc="F F F"
C        0.51349481      -1.34135047       1.55400000       0.12503602      -0.16345298       0.22971189
B        1.21632189      -0.91799503       3.03520203       0.00107556       0.00198890       0.00156580
B        1.01324485       0.84030299       3.09500436       0.00233783      -0.00200556      -0.00234890
B       -0.73906977       1.17219398       3.07182930       0.00128368       0.00321156      -0.00067218
B       -0.11073337      -0.24478126       3.97929352       0.00620865      -0.00145179       0.00001832
B       -0.37157501      -1.65724922       3.02251506       0.00127561      -0.00058757      -0.00123240
C       -1.05517053      -1.05710224       1.56400000      -0.09031844      -0.02634984      -0.01508015
B        1.42845899       0.07241959       1.55326868      -0.00929871       0.00143051      -0.00091520
B        0.23093107       1.40625063       1.60427496      -0.00436743       0.00136259      -0.00042976
B       -1.36576065       0.59137165       1.51046205      -0.00935251       0.00044360       0.00164174
B       -1.57481579      -0.38607045       3.01809602      -0.00013635      -0.00368838      -0.00425000
C        1.14300000       0.92400000      -1.55300000       0.12901123       0.01429179      -0.09734641
B        1.62237628       0.19738202      -2.99675684      -0.00003993      -0.00025717       0.00013863
B        0.67554569      -1.29678388      -3.03779556       0.00306560       0.00093195       0.00151977
B       -1.04768179      -0.83801676      -3.07945345      -0.00058815      -0.00305407      -0.00029424
B        0.15651522       0.15048028      -3.96951957       0.00613398      -0.00012319      -0.00038741
B        0.51442640       1.55271341      -3.02980658       0.00204925      -0.00080506       0.00103999
C       -0.40000000       1.32300000      -1.56800000      -0.14174181       0.26883739      -0.21396162
B        1.33565030      -0.74278108      -1.48746494      -0.00870177       0.00398580       0.00111714
B       -0.31813925      -1.43421505      -1.57641334      -0.00455373       0.00106749       0.00116524
B       -1.41758945      -0.01828326      -1.55140240      -0.00850633       0.00363328      -0.00138012
B       -1.12259899       0.92982132      -3.04978534       0.00102513       0.00351490       0.00374462
Co       0.00000000       0.00000000       0.00000000      -0.02087504      -0.09807236       0.09782991
H        0.87703471      -2.23984484       1.04609728      -0.00076048       0.00085863       0.00206780
H        2.14892431      -1.54129841       3.43917849       0.00120582       0.00149085      -0.00318535
H        1.78895794       1.53379121       3.68029835       0.00039288      -0.00032996      -0.00312437
H       -1.22305540       2.10717844       3.63425346       0.00055008       0.00171444       0.00157634
H       -0.12726703      -0.26693413       5.16949315       0.00397499       0.00030481       0.00034341
H       -0.58524344      -2.78516331       3.32600360       0.00247561       0.00016016       0.00036734
H       -1.70844764      -1.75880302       1.03655219       0.00057869       0.00709814       0.00567997
H        2.53704629       0.06656105       1.10714410       0.00510893       0.00271741      -0.00038694
H        0.43862573       2.51118616       1.19059384      -0.00090475       0.00033551      -0.00092107
H       -2.39594193       0.99087461       1.05654236       0.00315371      -0.00370100      -0.00177703
H       -2.68106678      -0.60827522       3.40308017       0.00098845      -0.00056231       0.00293213
H        1.84689220       1.58248906      -1.03486767      -0.00653431      -0.00088994      -0.00124900
H        2.74240796       0.33743698      -3.38010813      -0.00068897      -0.00217163       0.00255579
H        1.09078002      -2.27152378      -3.58746520       0.00057858      -0.00051679       0.00213578
H       -1.86868839      -1.48285717      -3.65799448      -0.00096136      -0.00204974      -0.00234368
H        0.18044637       0.15458317      -5.15971438       0.00309426      -0.00172942      -0.00077038
H        0.80955531       2.65836198      -3.34631162       0.00177544      -0.00135592      -0.00047109
H       -0.69963544       2.25710974      -1.08147204      -0.00209787      -0.00317964      -0.00395627
H        2.31637663      -1.20744185      -0.98935255       0.00422161      -0.00533338       0.00054165
H       -0.61284388      -2.50716583      -1.13360497      -0.00097587       0.00005791       0.00056576
H       -2.53414877       0.07634225      -1.13614493       0.00415478       0.00168174       0.00135887
H       -2.00664248       1.61252941      -3.46624987       0.00064681       0.00054793      -0.00313479
