45
Properties=species:S:1:pos:R:3:forces:R:3 charge=-1 spin=1 energy=-242.2947998046875 free_energy=-242.2947998046875 stress="-6.92653756573236e-08 2.605304061376046e-08 -3.087815869662336e-08 2.605304061376046e-08 -8.467569756476223e-08 9.982714743728138e-08 -3.087815869662336e-08 9.982714743728138e-08 -1.438966990008339e-07" pbc="F F F"
C        0.90286267      -1.11702148       1.55400000       0.18481255      -0.07943407       0.24289325
B        1.44468196      -0.49128321       3.03054920       0.00134407       0.00202385       0.00034953
B        0.70629177       1.11733781       3.09152904       0.00177261       0.00162239      -0.00124001
B       -1.06158840       0.88670896       3.07458173      -0.00136063       0.00226530       0.00081468
B       -0.02244943      -0.26309360       3.97952950       0.00238342      -0.00035630       0.00098261
B        0.16390224      -1.68815102       3.02335403      -0.00032859      -0.00042730      -0.00014341
C       -0.67686425      -1.33142960       1.56400000      -0.07319563      -0.06409550      -0.00431708
B        1.33272688       0.51573689       1.55213554      -0.00201043       0.00314109       0.00181626
B       -0.21805667       1.41025136       1.60229441       0.00010613       0.00000599      -0.00111231
B       -1.47765573       0.13824983       1.50705322      -0.00176138      -0.00393786       0.00053154
B       -1.37246178      -0.85390862       3.02333549       0.00123632      -0.00277705      -0.00176681
C        1.14300000       0.92400000      -1.55300000       0.12322663      -0.01604646      -0.10284236
B        1.62551808       0.19275984      -2.99326557       0.00097381       0.00042748       0.00245315
B        0.67677307      -1.30033514      -3.03685544       0.00301172      -0.00117944       0.00070048
B       -1.04441775      -0.83711268      -3.08430312      -0.00286362      -0.00047744      -0.00193023
B        0.16284267       0.14785401      -3.97080001       0.00340554       0.00233072      -0.00195691
B        0.51926850       1.55058822      -3.03128334       0.00055162      -0.00019940       0.00042893
C       -0.40000000       1.32300000      -1.56800000      -0.13657874       0.28136605      -0.21801040
B        1.33152426      -0.74707498      -1.48989159      -0.00346047       0.00039893      -0.00095698
B       -0.32174023      -1.43507488      -1.57828048      -0.00004410       0.00039381       0.00150993
B       -1.41360257      -0.01560976      -1.54999469      -0.00050676       0.00583300      -0.00053076
B       -1.11670633       0.93035552      -3.05542068       0.00237349       0.00445369       0.00245765
Co       0.00000000       0.00000000       0.00000000      -0.10460611      -0.13385776       0.09037831
H        1.52821806      -1.85799554       1.04832686      -0.00025690      -0.00146207      -0.00145218
H        2.52606033      -0.79415506       3.43041832       0.00062153       0.00116102      -0.00018227
H        1.23071088       2.01846526       3.67251126      -0.00087097      -0.00011486      -0.00079580
H       -1.81203578       1.62539763       3.63649726      -0.00165369       0.00128823       0.00088962
H       -0.02557844      -0.28819503       5.16976692       0.00163931       0.00082113      -0.00036328
H        0.31163077      -2.82593139       3.32903220       0.00105238       0.00057244       0.00072758
H       -1.08179955      -2.19906491       1.03604502      -0.00179089       0.00087480       0.00424591
H        2.38431187       0.85807648       1.09714162       0.00234162       0.00215392       0.00334962
H       -0.37434718       2.52263881       1.18683067       0.00024161      -0.00182504      -0.00319534
H       -2.58917228       0.19602817       1.07636603      -0.00149973      -0.00006637       0.00042380
H       -2.35445810      -1.40727614       3.41166932       0.00135149       0.00098486       0.00094116
H        1.84697050       1.58126774      -1.03511882       0.00200009      -0.00088710       0.00303432
H        2.74704212       0.33073885      -3.37242406      -0.00073141      -0.00080688      -0.00004132
H        1.09277028      -2.27668557      -3.58235415      -0.00076074       0.00004619      -0.00153157
H       -1.86652479      -1.48067945      -3.66246728      -0.00273302      -0.00077282      -0.00305443
H        0.19196963       0.15007626      -5.16080070       0.00151098       0.00024581      -0.00186594
H        0.81649391       2.65528399      -3.34901613       0.00084466      -0.00109854      -0.00007629
H       -0.70051344       2.25571528      -1.08054605      -0.00080203      -0.00008811       0.00030524
H        2.30696890      -1.21664746      -0.98411917       0.00165624      -0.00300765      -0.00588468
H       -0.63035335      -2.50608622      -1.14164406      -0.00079252       0.00068276      -0.00410861
H       -2.53728121       0.08402410      -1.15885433      -0.00120033       0.00036735      -0.00072514
H       -1.99917765       1.61352837      -3.47448294       0.00135079      -0.00054321      -0.00114998
