45
Properties=species:S:1:pos:R:3:forces:R:3 charge=-1 spin=1 energy=-242.26571655273438 free_energy=-242.26571655273438 stress="-5.170091910144947e-08 2.0667089373205272e-08 -9.211447604684508e-09 2.0667089373205272e-08 -9.836645631366991e-08 1.1118755338657138e-07 -9.211447604684508e-09 1.1118755338657138e-07 -1.2473135768686916e-07" pbc="F F F"
C        0.32181761      -1.39976120       1.55400000       0.08535868      -0.19825277       0.22567853
B        1.07332274      -1.07932061       3.03881384      -0.00078198      -0.00042880      -0.00080910
B        1.11686900       0.68995679       3.09834398       0.00037543      -0.00153320      -0.00264326
B       -0.57149742       1.26452053       3.07060934       0.00136792       0.00142536       0.00141735
B       -0.14728391      -0.22772666       3.97976514       0.00279828      -0.00029384       0.00003454
B       -0.60100715      -1.58984200       3.02211957       0.00095531       0.00007571      -0.00062720
C       -1.19202188      -0.89996324       1.56400000      -0.09492025       0.00947508      -0.01601112
B        1.42327752      -0.13001578       1.55320127      -0.00126490       0.00546424       0.00102036
B        0.42533478       1.35970330       1.60590576      -0.00149018       0.00022572      -0.00028296
B       -1.26975123       0.77803291       1.51210235      -0.00393507      -0.00151101      -0.00011487
B       -1.61594159      -0.16220524       3.01509493       0.00023396      -0.00151194      -0.00104539
C        1.14300000       0.92400000      -1.55300000       0.12603463       0.03490403      -0.09545717
B        1.62055404       0.19911878      -2.99958920      -0.00067520       0.00216246       0.00103956
B        0.67360004      -1.29463051      -3.04059884       0.00066772       0.00127763       0.00230235
B       -1.05043652      -0.83732110      -3.07835813       0.00067389      -0.00199743      -0.00110761
B        0.15448275       0.15219397      -3.96985103       0.00189288      -0.00054502       0.00014624
B        0.51312205       1.55371450      -3.02953971       0.00094902      -0.00088674       0.00075077
C       -0.40000000       1.32300000      -1.56800000      -0.15484454       0.25211042      -0.21752450
B        1.33600410      -0.74021077      -1.48639822      -0.00353152      -0.00256355      -0.00000852
B       -0.31724613      -1.43434255      -1.57700769      -0.00072581       0.00102186      -0.00003590
B       -1.41843403      -0.02081817      -1.55243010      -0.00186867       0.00343466       0.00067611
B       -1.12517880       0.93040523      -3.04686116       0.00086984       0.00086264       0.00059884
Co       0.00000000       0.00000000       0.00000000       0.05178832      -0.10571463       0.09994087
H        0.55470581      -2.34071196       1.04633456      -0.00072770       0.00045140       0.00301859
H        1.91059767      -1.82593049       3.44242822      -0.00001489       0.00061430      -0.00087118
H        1.98142337       1.26877425       3.68384919      -0.00014639      -0.00099771      -0.00252649
H       -0.92054518       2.25682447       3.63459069       0.00012251       0.00325078       0.00045215
H       -0.16809496      -0.24750432       5.16991877       0.00088205       0.00079170       0.00063060
H       -0.96889139      -2.67757085       3.32463030       0.00061997       0.00097981       0.00040060
H       -1.93791681      -1.50093607       1.03518157       0.00074863       0.00291904       0.00183873
H        2.53123518      -0.29385203       1.13751129      -0.00147574       0.00112938      -0.00001610
H        0.79414028       2.42223126       1.19361684       0.00015620       0.00084046      -0.00144166
H       -2.22322409       1.31356984       1.03047366      -0.00038600      -0.00046904       0.00052942
H       -2.74238455      -0.22950481       3.39983903       0.00019079       0.00054879       0.00063741
H        1.84557910       1.58469115      -1.03602678      -0.00430621      -0.00001479      -0.00102188
H        2.74093683       0.33787115      -3.38230831      -0.00119245      -0.00027916      -0.00000703
H        1.08871953      -2.26971439      -3.58992329       0.00001252       0.00108789       0.00182126
H       -1.87097661      -1.48134391      -3.65841813      -0.00148509      -0.00265915      -0.00029912
H        0.17783810       0.15667377      -5.16008534      -0.00019590      -0.00044191      -0.00031844
H        0.80942198       2.65921623      -3.34563214      -0.00067241      -0.00136128      -0.00000198
H       -0.70201110       2.25577124      -1.08043759      -0.00057709      -0.00290710      -0.00158024
H        2.32841612      -1.20882947      -1.01658345      -0.00085619      -0.00007049      -0.00074984
H       -0.60303208      -2.51102077      -1.13764092       0.00010107      -0.00038622       0.00232569
H       -2.52473106       0.07064891      -1.10877894      -0.00030070       0.00024958      -0.00045453
H       -2.00841280       1.61414563      -3.46350488      -0.00042489      -0.00047691      -0.00030424
