45
Properties=species:S:1:pos:R:3:forces:R:3 charge=-1 spin=1 energy=-54314.39455701607 free_energy=-54314.39455701607 stress="0.6977755427360535 0.25253140926361084 -0.3414493501186371 0.25253140926361084 0.7034583687782288 0.2525942921638489 -0.3414493501186371 0.2525942921638489 -0.3524593710899353" pbc="F F F"
C       -1.42281239       0.19622159       1.55400000       0.11736719       0.12162968      -0.16238977
B       -1.37870536      -0.65343634       3.00514393      -0.00738240      -0.00130873       0.00883776
B        0.25917071      -1.30573732       3.09116888       0.00259406      -0.00033664       0.01559601
B        1.38217478       0.06133308       3.09162769      -0.00092409       0.00012635       0.00172158
B       -0.16114132       0.18436363       3.98056456      -0.00910738      -0.00607601       0.01238338
B       -1.28656394       1.11109423       2.96576405      -0.00227429       0.00038912       0.00473964
C       -0.41801347       1.43391587       1.56400000      -0.00930235      -0.47287613      -0.17801274
B       -0.60490061      -1.29483739       1.52968320       0.00793189      -0.00715226       0.02833194
B        1.12699776      -0.88143255       1.58061686       0.00514717       0.00441996       0.01919789
B        1.18597698       0.90035590       1.54121174      -0.01447714       0.01344869       0.00583677
B        0.43114946       1.54662385       3.01812604       0.00383088      -0.00627110       0.00080494
C        1.14300000       0.92400000      -1.55300000      -0.45910314      -0.22000664       0.16422325
B        1.60135029       0.15774627      -2.97274543       0.00942576      -0.00057322      -0.00696750
B        0.63271100      -1.31629021      -3.02969174       0.00029445      -0.00430851      -0.01360130
B       -1.07215827      -0.84869593      -3.07590946       0.00034224      -0.00252648       0.00124864
B        0.13426267       0.12140341      -3.96519573       0.01233745      -0.00546289      -0.00990269
B        0.51028009       1.54795193      -2.97738750       0.00302518      -0.00159448      -0.00512675
C       -0.40000000       1.32300000      -1.56800000       0.12059154       0.11765769      -0.02858443
B        1.30562285      -0.76581636      -1.46759909      -0.00439925      -0.01545629      -0.02440328
B       -0.34753305      -1.43279380      -1.53191650      -0.00409215      -0.00359781      -0.01920018
B       -1.43015515      -0.01854274      -1.55345151       0.00293008       0.01458182      -0.00798751
B       -1.14332576       0.91565308      -3.03610348       0.00179597      -0.01167174       0.00222052
Co       0.00000000       0.00000000       0.00000000       0.18522954       0.59068453       0.16933808
H       -2.36822836       0.33850841       1.05763642       0.01556789       0.00462133       0.02599870
H       -2.37452287      -1.15906004       3.39353900      -0.01396425       0.00651708       0.01563550
H        0.48394538      -2.32409246       3.65167687      -0.01610162      -0.00760157       0.01135508
H        2.42774591       0.04858298       3.64946781      -0.00341093      -0.01478237       0.00410924
H       -0.22985723       0.23685189       5.16257475       0.00056941       0.00510536       0.01644923
H       -2.16944835       1.83411068       3.27508073       0.00200069       0.01122271       0.00796161
H       -0.74511404       2.34165563       1.08210736       0.00191429      -0.01436681       0.00201441
H       -1.14041225      -2.26411073       1.11108668      -0.01217807       0.00258553       0.04428109
H        2.00943260      -1.59728148       1.24632095      -0.00667449      -0.01873647       0.04477882
H        2.03490211       1.59674744       1.08682228       0.01282208      -0.00040517       0.02082902
H        0.73159923       2.62236579       3.41328395       0.00954953      -0.01130705      -0.00090892
H        1.81896643       1.59382162      -1.05062975      -0.01481075      -0.00750827      -0.02339254
H        2.71151862       0.30046832      -3.35408318       0.01144142       0.01013937      -0.01403265
H        1.04416829      -2.29231355      -3.55854502       0.01970535      -0.00129031      -0.00440877
H       -1.90814289      -1.47163000      -3.63934187       0.01224539      -0.01550752      -0.00001390
H        0.17567666       0.17836012      -5.14838788      -0.00012460      -0.00354366      -0.01400193
H        0.80243215       2.64623341      -3.30433193      -0.00698507       0.00432874      -0.00958095
H       -0.66678776       2.27211040      -1.12864956       0.00827019      -0.01330830      -0.00102557
H        2.28786926      -1.24966843      -1.01935871       0.00863558       0.00753574      -0.03974374
H       -0.65669913      -2.51757653      -1.16921493       0.01979580      -0.01296985      -0.03902927
H       -2.53050236       0.08564782      -1.11659027      -0.01212414      -0.01412960      -0.02572494
H       -1.99650869       1.62448421      -3.45330146       0.00207527      -0.02031794       0.00014614
