45
Properties=species:S:1:pos:R:3:forces:R:3 charge=-1 spin=1 energy=-242.29730224609375 free_energy=-242.29730224609375 stress="-8.991995770202266e-08 -3.0313178633889493e-09 5.8523660584341997e-08 -3.0313178633889493e-09 -5.585957296716515e-08 6.09366637149833e-08 5.8523660584341997e-08 6.09366637149833e-08 -2.0042529058628133e-07" pbc="F F F"
C       -1.42573227      -0.17373977       1.55400000      -0.24693117      -0.07754155       0.21014744
B       -1.18053655      -0.97372915       3.02773180      -0.00362488       0.00241521      -0.00361307
B        0.56911463      -1.19260243       3.08908596      -0.00001904       0.00226173       0.00115256
B        1.31089777       0.43125014       3.08505991      -0.00170353      -0.00023276       0.00014061
B       -0.21694117       0.14408668       3.98059100      -0.00081800      -0.00092982       0.00024454
B       -1.52085978       0.74179211       3.02049271      -0.00483637      -0.00040781      -0.00553549
C       -0.77043293       1.27956364       1.56400000       0.03289831       0.04497480       0.14535950
B       -0.26547987      -1.38665794       1.51428780      -0.00018723      -0.00105792      -0.00035836
B        1.31355791      -0.54836864       1.60276799       0.00020596      -0.00001200      -0.00103106
B        0.90452186       1.19358895       1.53821061      -0.00108554      -0.00244153       0.00005241
B        0.00040465       1.61106293       3.02431302       0.00216020       0.00182751      -0.00048767
C        1.14300000       0.92400000      -1.55300000       0.12837256       0.00681168      -0.12930356
B        1.62085263       0.17451682      -2.98986109       0.00014883       0.00502563       0.00324775
B        0.66864627      -1.31134157      -3.01857095      -0.00098881       0.00149424      -0.00096652
B       -1.05451860      -0.84802044      -3.06973298       0.00167409       0.00160217      -0.00100902
B        0.15985814       0.12218494      -3.96292471       0.00209047       0.00076972       0.00055303
B        0.52078229       1.53160402      -3.03519163       0.00387914       0.00266454       0.00525421
C       -0.40000000       1.32300000      -1.56800000      -0.14646974       0.19884706      -0.32768852
B        1.31684007      -0.74089637      -1.44512192       0.00091621       0.00030262       0.00044428
B       -0.33439703      -1.43223053      -1.55028291      -0.00019293       0.00025085       0.00083674
B       -1.42668407      -0.01315741      -1.55680797       0.00238952      -0.00130098       0.00033574
B       -1.12151998       0.91688468      -3.04540428      -0.00173498       0.00010526      -0.00034980
Co       0.00000000       0.00000000       0.00000000       0.24392512      -0.19747394       0.10408551
H       -2.38549576      -0.31057043       1.04823152      -0.00617075      -0.00095948      -0.00676455
H       -2.00484251      -1.74097941       3.41817527      -0.00033338       0.00075530      -0.00012781
H        1.05750306      -2.12280908       3.65584459      -0.00126868      -0.00031777       0.00175642
H        2.33108097       0.66819240       3.65644814       0.00055581       0.00159570       0.00344893
H       -0.24081662       0.15677906       5.17010638      -0.00141293       0.00119965       0.00388868
H       -2.56579154       1.21452872       3.32667737      -0.00157383       0.00171845       0.00011140
H       -1.30230267       2.09355687       1.06251239       0.00112384       0.00003241      -0.00253831
H       -0.53835010      -2.47187728       1.09566923       0.00079582       0.00127577       0.00279154
H        2.34578628      -1.02496880       1.23631105       0.00155383       0.00152593       0.00106283
H        1.54832539       2.08954061       1.07719898       0.00016209      -0.00172058      -0.00587684
H        0.03600765       2.73254128       3.42527197      -0.00049697       0.00370449       0.00017324
H        1.84871288       1.58570697      -1.04471969       0.00189658       0.00159670       0.00573578
H        2.74405858       0.29840328      -3.36844214       0.00020123       0.00081473       0.00092427
H        1.08456897      -2.29781850      -3.54653895       0.00183675       0.00028569      -0.00125378
H       -1.87356165      -1.49706276      -3.64547393      -0.00088729      -0.00000690      -0.00348209
H        0.18549275       0.11677736      -5.15257622       0.00076705       0.00136840      -0.00328778
H        0.82087579       2.63139387      -3.36603695      -0.00023275       0.00165290       0.00028163
H       -0.69677506       2.27238795      -1.11138058      -0.00058381      -0.00120419       0.00301871
H        2.31291341      -1.21210389      -0.98644936      -0.00228897      -0.00041467       0.00105338
H       -0.62702122      -2.51720717      -1.14498854      -0.00183000      -0.00161403      -0.00424543
H       -2.53860888       0.07531214      -1.12336249       0.00001185      -0.00140366       0.00256396
H       -1.99487512       1.60395006      -3.47570731      -0.00189374       0.00216044      -0.00074445
