45
Properties=species:S:1:pos:R:3:forces:R:3 charge=-1 spin=1 energy=-54314.46237279671 free_energy=-54314.46237279671 stress="1.5101951360702515 0.27101701498031616 0.6046949625015259 0.27101701498031616 0.45852965116500854 -0.4565434455871582 0.6046949625015259 -0.4565434455871582 1.0949969291687012" pbc="F F F"
C        0.69746598       1.25556331       1.55400000      -0.11532349      -0.23459594       0.00818319
B       -0.12070389       1.51796416       3.01058034       0.00011995      -0.00072167       0.00067356
B       -1.33017608       0.22448610       3.07522767      -0.00086454       0.00126639      -0.00184739
B       -0.46395979      -1.32044840       3.05216089      -0.00193217       0.00141297       0.00204554
B        0.20631052       0.06410806       3.96760486      -0.00128044      -0.00133644       0.00020806
B        1.48843533       0.78578491       2.97156437      -0.00132614      -0.00164507       0.00013770
C        1.48803784      -0.12881530       1.56400000      -0.52425939       0.25427371      -0.37908700
B       -0.99532349       1.03814321       1.53970305       0.00322783      -0.00399002       0.00228129
B       -1.24095058      -0.73276238       1.54959730      -0.00680223       0.00196613      -0.00129156
B        0.40538247      -1.43317820       1.49122677       0.00126360      -0.00172753      -0.00027421
B        1.26266046      -0.97277589       2.99818363      -0.00304944      -0.00030161      -0.00034652
C        1.14300000       0.92400000      -1.55300000      -0.49878955      -0.37015826       0.04909555
B        1.60547607       0.16415342      -2.98547076       0.00012731      -0.00107053      -0.00133808
B        0.63496724      -1.31687783      -3.04032396       0.00107539      -0.00130352       0.00255400
B       -1.07309186      -0.85079028      -3.06351936       0.00175267      -0.00274598      -0.00032699
B        0.12922866       0.12267769      -3.96483649      -0.00140337      -0.00322808      -0.00004987
B        0.50730962       1.54970152      -2.97824671      -0.00125675      -0.00270277      -0.00065750
C       -0.40000000       1.32300000      -1.56800000       0.19829509       0.16511257       0.29034823
B        1.31034220      -0.76918187      -1.49740309      -0.00561708       0.00329333      -0.00327926
B       -0.34757188      -1.43778138      -1.53354267       0.00330228      -0.00618518       0.00262745
B       -1.43008922      -0.02016714      -1.52121244      -0.00341932       0.00055761       0.00165712
B       -1.14466442       0.90863720      -3.02331704       0.00043410      -0.00423186       0.00050931
Co       0.00000000       0.00000000       0.00000000       0.96198994       0.22176567       0.02426615
H        1.18633985       2.09780956       1.08818213       0.00127013      -0.00281232      -0.00247370
H       -0.21984601       2.62608690       3.41646761       0.00034991       0.00015097       0.00039380
H       -2.36040507       0.38562123       3.63773039      -0.00191853       0.00114156      -0.00063580
H       -0.85801575      -2.29219737       3.60354883      -0.00313896      -0.00172387       0.00023718
H        0.27666879       0.09154608       5.15097065      -0.00235315      -0.00012019       0.00069446
H        2.48171371       1.33936101       3.29739418       0.00004559      -0.00021945       0.00229186
H        2.44067563      -0.16119685       1.06113647      -0.00165070      -0.00079273      -0.00044310
H       -1.69720192       1.88678358       1.08986225      -0.00048666       0.00434808      -0.00169723
H       -2.22488957      -1.29024417       1.19093205       0.00089075       0.00267160      -0.00036568
H        0.75710862      -2.47218295       1.04689993      -0.00249926       0.00037226       0.00108344
H        2.14614019      -1.65374565       3.39382604      -0.00201360      -0.00031613       0.00169073
H        1.82585989       1.60634239      -1.07166165      -0.00281983       0.00052817       0.00177853
H        2.71220212       0.32092565      -3.37693557       0.00074094      -0.00043635      -0.00059999
H        1.05127512      -2.28826366      -3.57600347       0.00153042      -0.00236787       0.00162064
H       -1.90832300      -1.47283850      -3.62802332      -0.00154531      -0.00495761       0.00022399
H        0.15908215       0.18453935      -5.14862228       0.00049349      -0.00383494      -0.00031773
H        0.79270692       2.64968943      -3.30647076      -0.00067550      -0.00148846      -0.00280506
H       -0.67249532       2.25729165      -1.10227826      -0.00009722      -0.00084473       0.00009192
H        2.28671419      -1.25316172      -1.02214420       0.00428646       0.00094477       0.00327568
H       -0.65198368      -2.52216970      -1.16223635       0.00253910       0.00205504       0.00161678
H       -2.53091551       0.08768706      -1.09888014       0.00052513      -0.00231148      -0.00041116
H       -2.00337337       1.61006938      -3.43729140       0.00026235      -0.00368974      -0.00133869
