45
Properties=species:S:1:pos:R:3:forces:R:3 charge=-1 spin=1 energy=-242.26876831054688 free_energy=-242.26876831054688 stress="-5.723848417460431e-08 2.484946826086798e-08 -1.7918889483325984e-08 2.484946826086798e-08 -9.487946783792722e-08 1.0960632579326557e-07 -1.7918889483325984e-08 1.0960632579326557e-07 -1.25309284726427e-07" pbc="F F F"
C        0.55999446      -1.32261265       1.55400000       0.13136846      -0.15667951       0.23140794
B        1.24764311      -0.87495141       3.03521327       0.00146675       0.00219959       0.00066377
B        0.98334413       0.87512875       3.09496675       0.00227477      -0.00132589      -0.00237425
B       -0.77951166       1.14573554       3.07183378       0.00113675       0.00246882      -0.00000671
B       -0.10203547      -0.24851332       3.97929781       0.00540893      -0.00091942       0.00002691
B       -0.31348959      -1.66921654       3.02250441       0.00159520      -0.00033323      -0.00058556
C       -1.01763541      -1.09328320       1.56400000      -0.09106138      -0.03067601      -0.01681238
B        1.42489060       0.12226517       1.55331635      -0.00504202       0.00268047       0.00038220
B        0.18168085       1.41346779       1.60425687      -0.00276309       0.00085592      -0.00103305
B       -1.38570172       0.54333589       1.51041677      -0.00446540      -0.00200716      -0.00077592
B       -1.56038104      -0.44085096       3.01805473       0.00045205      -0.00308833      -0.00232961
C        1.14300000       0.92400000      -1.55300000       0.12730503       0.01177612      -0.09823407
B        1.62238018       0.19736821      -2.99674377       0.00023115      -0.00096602       0.00068801
B        0.67559417      -1.29677651      -3.03776635       0.00255333       0.00043525       0.00178556
B       -1.04768891      -0.83806230      -3.07946998      -0.00020002      -0.00241087      -0.00082316
B        0.15660114       0.15047929      -3.96952823       0.00517932      -0.00022617      -0.00031762
B        0.51445683       1.55269723      -3.02979405       0.00199252      -0.00083736       0.00055205
C       -0.40000000       1.32300000      -1.56800000      -0.14323732       0.27101710      -0.21093477
B        1.33548397      -0.74271993      -1.48752086      -0.00516254       0.00096823      -0.00040528
B       -0.31817435      -1.43421896      -1.57638935      -0.00279772       0.00041375       0.00116390
B       -1.41770966      -0.01820819      -1.55136011      -0.00327405       0.00423972       0.00072001
B       -1.12257809       0.92987324      -3.04974978       0.00135366       0.00283930       0.00195285
Co       0.00000000       0.00000000       0.00000000      -0.03087249      -0.09939718       0.09776980
H        0.95466845      -2.20784895       1.04612620       0.00029291       0.00092217       0.00149585
H        2.20141961      -1.46534219       3.43913212       0.00132693       0.00130448      -0.00309266
H        1.73434389       1.59528422       3.68024984       0.00057718      -0.00020275      -0.00323287
H       -1.29584430       2.06323581       3.63427733       0.00039043       0.00172907       0.00169180
H       -0.11781894      -0.27120701       5.16949790       0.00380660       0.00041770       0.00026736
H       -0.48765535      -2.80388605       3.32601143       0.00214189       0.00015125       0.00055291
H       -1.64599432      -1.81725734       1.03663528       0.00017790       0.00420491       0.00390893
H        2.53327016       0.15509640       1.10704742       0.00097306       0.00233766      -0.00454734
H        0.35067423       2.52496675       1.19057316      -0.00315150       0.00040001      -0.00153270
H       -2.42899729       0.90660527       1.05660394       0.00061365      -0.00214221       0.00255291
H       -2.65819161      -0.70147875       3.40312379       0.00105512      -0.00051074       0.00293462
H        1.84681030       1.58245788      -1.03489663      -0.00391875      -0.00079160      -0.00077751
H        2.74239459       0.33740777      -3.38007016      -0.00039414      -0.00197850       0.00253491
H        1.09078702      -2.27152729      -3.58743011       0.00059132      -0.00037119       0.00241345
H       -1.86870279      -1.48288591      -3.65802942      -0.00084843      -0.00188127      -0.00237100
H        0.18048898       0.15455934      -5.15972414       0.00298828      -0.00163442      -0.00061445
H        0.80957608       2.65834256      -3.34632020       0.00148889      -0.00132841      -0.00055860
H       -0.69964558       2.25706478      -1.08151857      -0.00099498      -0.00160602      -0.00243187
H        2.31645367      -1.20751941      -0.98925526       0.00016687      -0.00301299       0.00416718
H       -0.61288138      -2.50714934      -1.13359878      -0.00276386       0.00073963       0.00062262
H       -2.53407046       0.07636037      -1.13621706       0.00119645       0.00177976      -0.00340688
H       -2.00663356       1.61253623      -3.46629572       0.00084229       0.00044633      -0.00305699
