45
Properties=species:S:1:pos:R:3:forces:R:3 charge=-1 spin=1 energy=-242.26773071289062 free_energy=-242.26773071289062 stress="-4.693610478057053e-08 1.2445275920924814e-08 -4.0723207916926185e-08 1.2445275920924814e-08 -1.0624688684401917e-07 3.576668206051181e-08 -4.0723207916926185e-08 3.576668206051181e-08 -2.0873608264082577e-07" pbc="F F F"
C        0.86541892       1.14627575       1.55400000       0.10364324       0.19976783       0.29277176
B        0.11357864       1.51442633       3.02509771       0.00180904      -0.00056411       0.00144298
B       -1.26915169       0.41873338       3.07187766       0.00027767       0.00054191       0.00332546
B       -0.62727844      -1.24653152       3.04889153       0.00178576       0.00149572      -0.00020143
B        0.23279967       0.02738465       3.96829008      -0.00156416      -0.00023493      -0.00176731
B        1.58009453       0.55344598       3.02573216      -0.00257525      -0.00243436       0.00281022
C        1.45562873      -0.33465652       1.56400000       0.00826529      -0.11415730       0.11727221
B       -0.81509247       1.18808432       1.54104385      -0.00057244       0.00178909      -0.00046968
B       -1.31985275      -0.53614881       1.56425428      -0.00007400       0.00015795      -0.00206077
B        0.21050278      -1.46364120       1.48247458      -0.00826754      -0.00318843       0.00197089
B        1.13602843      -1.13772747       3.00998753      -0.00195191       0.00296398       0.00132306
C        1.14300000       0.92400000      -1.55300000       0.09382877       0.02894914      -0.22372536
B        1.61212645       0.19501259      -3.00099624      -0.00116016       0.00206882      -0.00297825
B        0.67118333      -1.29660045      -3.04289622       0.00068761       0.00033148      -0.00373743
B       -1.05445357      -0.84456434      -3.06780311       0.00005774       0.00160053       0.00109097
B        0.13682855       0.14425304      -3.96723560      -0.00152811      -0.00124161       0.00140670
B        0.49755018       1.54671795      -3.02724053      -0.00312994      -0.00217172      -0.00203854
C       -0.40000000       1.32300000      -1.56800000      -0.21051697       0.27280223      -0.23672304
B        1.35047989      -0.73762252      -1.50579334       0.00073239      -0.00401629       0.00034970
B       -0.30468889      -1.43371278      -1.55687092      -0.00058192      -0.00084543       0.00207758
B       -1.40693793      -0.02963823      -1.51839020      -0.00140274      -0.00805135      -0.00275274
B       -1.13712204       0.91836299      -3.03684012       0.00292469      -0.00031583       0.00096676
Co       0.00000000       0.00000000       0.00000000       0.01810642      -0.37875274       0.04989436
H        1.45727680       1.93710464       1.08283065       0.00297290       0.00298561       0.00213028
H        0.15313837       2.63208065       3.43702646      -0.00036242       0.00012925      -0.00063933
H       -2.27520901       0.70480706       3.64651256      -0.00264293       0.00352413      -0.00216290
H       -1.17231190      -2.15596977       3.59798234      -0.00283290       0.00365283      -0.00351478
H        0.25169084       0.02380187       5.15809051      -0.00307678       0.00002164      -0.00334646
H        2.64514754       0.96804601       3.34740424      -0.00373811      -0.00150333       0.00043696
H        2.40490877      -0.52826860       1.05888907       0.00496377       0.00081619       0.00013369
H       -1.39059708       2.12829338       1.07548660      -0.00270335       0.00260122       0.00236075
H       -2.37600412      -0.93110003       1.16460290      -0.00087916       0.00174338      -0.00109578
H        0.41254471      -2.55087413       1.03088345       0.00049888       0.00025007      -0.00293796
H        1.90363479      -1.96019391       3.40371196      -0.00541072       0.00066975      -0.00011405
H        1.85247106       1.60169107      -1.06896978       0.00200328       0.00381900      -0.00236428
H        2.72538516       0.34535328      -3.39833022       0.00057635      -0.00023867       0.00001016
H        1.07825969      -2.27237680      -3.59599434       0.00339825      -0.00253481       0.00206767
H       -1.88162822      -1.49297469      -3.63415212       0.00252534      -0.00242589       0.00385409
H        0.15493572       0.15330414      -5.15698839      -0.00059433      -0.00306015       0.00268663
H        0.78939710       2.65107895      -3.35122596      -0.00166379      -0.00358564      -0.00074771
H       -0.70979157       2.25616491      -1.08754120       0.00078069       0.00532222      -0.00130180
H        2.33733975      -1.20627265      -1.02238249       0.00336214      -0.00267500      -0.00043381
H       -0.58144564      -2.52269436      -1.14951452       0.00225631      -0.00142150       0.00297585
H       -2.51918070       0.05333560      -1.08680652       0.00111501       0.00089920       0.00077021
H       -2.02562891       1.59755344      -3.44936037       0.00065760      -0.00548410       0.00098391
