45
Properties=species:S:1:pos:R:3:forces:R:3 charge=-1 spin=1 energy=-242.27586364746094 free_energy=-242.27586364746094 stress="-7.42393595487556e-08 9.77605729701736e-09 -5.758821686185911e-08 9.77605729701736e-09 -8.832514453160911e-08 8.319619837493519e-08 -5.758821686185911e-08 8.319619837493519e-08 -1.6889202925085556e-07" pbc="F F F"
C        1.43437873       0.07386249       1.55400000       0.19820637       0.05980121       0.31126797
B        1.23972579       0.87870648       3.02942299       0.00379988      -0.00074849      -0.00854275
B       -0.49014003       1.23428704       3.08240014      -0.00157443       0.00307262      -0.00266764
B       -1.35217615      -0.32945247       3.05542605      -0.00105530      -0.00268687       0.00058133
B        0.18006697      -0.17282537       3.97213652       0.00062007       0.00053100       0.00060314
B        1.44635007      -0.86436117       3.02599483       0.00095896       0.00146814      -0.00420644
C        0.67929835      -1.33018937       1.56400000      -0.01846394      -0.09035644       0.02718675
B        0.37841134       1.38763475       1.55074008       0.00348234      -0.00557858      -0.00479510
B       -1.26295352       0.66920774       1.58627415       0.00047821      -0.00128949      -0.00635849
B       -0.97900933      -1.10540119       1.48117844      -0.00176095      -0.00041559      -0.00046392
B       -0.13483795      -1.61010456       3.01268323       0.00156730      -0.00120285      -0.00168966
C        1.14300000       0.92400000      -1.55300000       0.09261309       0.02142823      -0.17271833
B        1.61863350       0.19941639      -2.99789903       0.00099349       0.00261752       0.00836382
B        0.67664320      -1.29407209      -3.04421474       0.00192501      -0.00318459       0.00262506
B       -1.04903867      -0.83846970      -3.07509382      -0.00334847       0.00102802      -0.00150568
B        0.14664328       0.15220138      -3.96905276       0.00086724      -0.00051087      -0.00114706
B        0.50395282       1.55347043      -3.02765903       0.00217712      -0.00097681       0.00391062
C       -0.40000000       1.32300000      -1.56800000      -0.15146282       0.31283325      -0.22646391
B        1.34255199      -0.74345575      -1.50339521      -0.00109553       0.00784761       0.00374460
B       -0.30606537      -1.43964711      -1.57657859      -0.00033712       0.00123391       0.00664268
B       -1.40598377      -0.01859996      -1.52540243      -0.00052813       0.00061779       0.00230610
B       -1.13035694       0.92594220      -3.04495193      -0.00043731       0.00156218       0.00142075
Co       0.00000000       0.00000000       0.00000000      -0.09751010      -0.30016464       0.07125244
H        2.41467071       0.13136534       1.07082098       0.00201838      -0.00270512      -0.00538580
H        2.12311752       1.56583858       3.44030343      -0.00301841       0.00205721      -0.00014299
H       -0.91046101       2.18629701       3.66650173      -0.00378989       0.00338958      -0.00107811
H       -2.39767335      -0.49823676       3.60678001      -0.00255811      -0.00123183      -0.00001447
H        0.19128165      -0.19167234       5.16205072      -0.00195152       0.00198479       0.00209202
H        2.44965570      -1.41593704       3.34046382      -0.00122356       0.00209492       0.00188208
H        1.14201650      -2.17172340       1.04064937       0.00151413       0.00237565      -0.00075394
H        0.72606865       2.43515989       1.08544397      -0.00647301      -0.00116594       0.00128410
H       -2.24972801       1.20601404       1.17435255      -0.00340733      -0.00433857      -0.00106125
H       -1.67334041      -1.96292938       1.02210029       0.00070362      -0.00213074       0.00226729
H       -0.27683796      -2.72922745       3.39794781       0.00031618       0.00023022       0.00175169
H        1.84660207       1.59444840      -1.04970506       0.00610942       0.00262575      -0.00663634
H        2.73465857       0.34880664      -3.38927513      -0.00202546      -0.00353707       0.00099580
H        1.09030507      -2.26479870      -3.60124849      -0.00103639      -0.00491785      -0.00031475
H       -1.87418471      -1.48498439      -3.64640370      -0.00408660      -0.00121666      -0.00040387
H        0.16915770       0.16020958      -5.15882139      -0.00004904      -0.00256849      -0.00272578
H        0.79648097       2.65927079      -3.34604785       0.00045314      -0.00275725      -0.00144477
H       -0.70201492       2.25496194      -1.07882156       0.00053777       0.00069149      -0.00244293
H        2.32177204      -1.21276967      -1.00088599      -0.00596194       0.00131027       0.00616776
H       -0.60076527      -2.51343300      -1.14112997      -0.00480015      -0.00015000      -0.00315257
H       -2.52077475       0.07652050      -1.10285626      -0.00089888       0.00261459       0.00111923
H       -2.02087847       1.60317005      -3.45640516      -0.00048706       0.00041868      -0.00134782
