45
Properties=species:S:1:pos:R:3:forces:R:3 charge=-1 spin=1 energy=-242.2295379638672 free_energy=-242.2295379638672 stress="-4.327978331275517e-08 3.685065408376431e-08 -1.3003938370559354e-08 3.685065408376431e-08 -8.460632017204262e-08 1.6189504847829994e-08 -1.3003938370559354e-08 1.6189504847829994e-08 -2.2312902103749366e-07" pbc="F F F"
C        0.12648327       1.43069912       1.55400000      -0.08787778       0.20376502       0.25768226
B       -0.71412596       1.33968190       3.01901561      -0.00256956      -0.00067196       0.00214101
B       -1.30031210      -0.32563952       3.06257965       0.00019854      -0.00021547       0.00310996
B        0.12965666      -1.39051041       3.05082444       0.00156337      -0.00015441      -0.00053021
B        0.17227839       0.14655014       3.96597192      -0.00086397      -0.00105583       0.00005150
B        1.03715625       1.30833732       3.02372812       0.00026388       0.00150217      -0.00002433
C        1.41178411       0.48756088       1.56400000       0.06885905      -0.06475544       0.14401293
B       -1.32081822       0.56502939       1.53219693      -0.00140384       0.00172076      -0.00235760
B       -0.82204366      -1.16060159       1.55155587       0.00091854      -0.00004822      -0.00013624
B        0.97004908      -1.13257266       1.49985737      -0.00059402      -0.00088193      -0.00358248
B        1.56304223      -0.35869478       3.01421161      -0.00076462      -0.00282924       0.00088196
C        1.14300000       0.92400000      -1.55300000       0.10978284      -0.04674423      -0.21065827
B        1.60937704       0.17577591      -2.99204249       0.00124766      -0.00094469       0.00094729
B        0.66093706      -1.31410246      -3.01738968       0.00179550      -0.00116996      -0.00221884
B       -1.06134388      -0.85468284      -3.05328101      -0.00398235       0.00188284       0.00076392
B        0.13721935       0.11818739      -3.95799930      -0.00154581       0.00141260      -0.00038325
B        0.50165715       1.52971723      -3.03054663      -0.00148868       0.00094055       0.00076068
C       -0.40000000       1.32300000      -1.56800000      -0.17437302       0.26397288      -0.26731175
B        1.34277178      -0.74387799      -1.48579590       0.00474235       0.00280885       0.00162368
B       -0.32173425      -1.42881893      -1.52635434       0.00027543       0.00001904       0.00168119
B       -1.42107590      -0.01708825      -1.52445256      -0.00015679       0.00059006       0.00287351
B       -1.13523105       0.90872633      -3.03718540      -0.00055967       0.00072000       0.00305688
Co       0.00000000       0.00000000       0.00000000       0.09094296      -0.34760702       0.06967235
H        0.19894335       2.41412349       1.07766781       0.00122256      -0.00784306       0.00289619
H       -1.27859730       2.30580246       3.42912956      -0.00009656       0.00100987       0.00028582
H       -2.30905362      -0.61904275       3.62904998      -0.00090751      -0.00027029       0.00087453
H        0.14316431      -2.44992172       3.60071795      -0.00032935       0.00146095       0.00091183
H        0.18382206       0.15454282       5.15557922      -0.00052207       0.00091750      -0.00022875
H        1.71737099       2.22560860       3.34737906       0.00143348       0.00291273       0.00072059
H        2.32246082       0.83464618       1.06758909      -0.00259852      -0.00326938       0.00113429
H       -2.31341697       1.05318454       1.07896990       0.00067771      -0.00024911       0.00214575
H       -1.48858861      -2.07425671       1.16096548       0.00141055       0.00142546      -0.00101846
H        1.72619297      -1.94440641       1.05951123       0.00063562       0.00369533      -0.00034530
H        2.64834898      -0.64284524       3.41555164       0.00031224       0.00123931       0.00110006
H        1.85827230       1.59633361      -1.06955558      -0.00485124      -0.00284557      -0.00296547
H        2.72345512       0.31616645      -3.39061892      -0.00046432      -0.00016302      -0.00092062
H        1.06759397      -2.29839786      -3.55573781       0.00006510      -0.00300072      -0.00181073
H       -1.88620502      -1.50988515      -3.61453245      -0.00130022      -0.00139533      -0.00059088
H        0.15761866       0.11412107      -5.14750223      -0.00037160      -0.00071869      -0.00075600
H        0.79595980       2.62993206      -3.36517518       0.00038406       0.00073215      -0.00081831
H       -0.70258107       2.26820515      -1.10544520       0.00013135      -0.00638254      -0.00220951
H        2.33443805      -1.21049464      -1.01345495      -0.00229803      -0.00033245      -0.00154705
H       -0.62189350      -2.51111908      -1.11554562      -0.00017549       0.00028770       0.00229898
H       -2.53113415       0.08427048      -1.09290477       0.00239123       0.00152880      -0.00065500
H       -2.01770891       1.58903052      -3.45980386       0.00084156      -0.00099576      -0.00055823
