45
Properties=species:S:1:pos:R:3:forces:R:3 charge=-1 spin=1 energy=-54314.56507779854 free_energy=-54314.56507779854 stress="0.877662718296051 0.6105620265007019 -0.9461432099342346 0.6105620265007019 0.7881085872650146 -1.3269288539886475 -0.9461432099342346 -1.3269288539886475 2.122710704803467" pbc="F F F"
C        0.34132995      -1.39513149       1.55400000      -0.03980146       0.25521380      -0.18528564
B        1.10759512      -1.04187668       3.02086435       0.00989368       0.00641381      -0.01176640
B        1.11046237       0.72634542       3.11589936      -0.00438707       0.00960742       0.00355678
B       -0.57485970       1.26956394       3.10219531      -0.00096023       0.00743967      -0.01102849
B       -0.12562332      -0.21651561       3.98881611       0.00525266      -0.00091929      -0.00211636
B       -0.56570569      -1.60314002       2.96408186      -0.00074144      -0.00265733      -0.00865846
C       -1.17934024      -0.91651874       1.56400000       0.32463965       0.26166543      -0.47381505
B        1.42026603      -0.08118646       1.56036623       0.00987149       0.02534134       0.01376433
B        0.39732762       1.37276580       1.60731167      -0.00621722       0.00733119      -0.00849393
B       -1.27961177       0.77655324       1.53902615       0.00550202      -0.00459930      -0.02671740
B       -1.60319248      -0.16393636       3.01221042       0.00001527       0.00522928       0.00099758
C        1.14300000       0.92400000      -1.55300000      -0.39339322      -0.35685933       0.41080752
B        1.60690593       0.15870825      -2.98038791       0.00814888      -0.00707446       0.01348149
B        0.63959548      -1.32086989      -3.05034440      -0.00598989      -0.00364113      -0.00686372
B       -1.06861374      -0.85517308      -3.09435124      -0.00402060      -0.00203449       0.00964953
B        0.13972998       0.12082529      -3.97464634       0.00751538       0.00081175       0.00064555
B        0.51074003       1.54611287      -2.97674799       0.00064372       0.00412923       0.00831359
C       -0.40000000       1.32300000      -1.56800000      -0.01894558       0.07307417       0.19402400
B        1.30286422      -0.76720972      -1.48883669      -0.00370654      -0.02405064      -0.01388016
B       -0.34608823      -1.43184758      -1.56526686      -0.01094707      -0.00266467      -0.00148961
B       -1.43255002      -0.02283876      -1.56538518       0.00500603       0.00621184       0.01782591
B       -1.14100052       0.91046060      -3.03980815      -0.00162332      -0.00659014      -0.00303636
Co       0.00000000       0.00000000       0.00000000       0.13308200      -0.28091946       0.09144276
H        0.55562176      -2.32370752       1.05144385      -0.00195470       0.00097857      -0.00480622
H        1.93940587      -1.78353873       3.41793652      -0.00418664      -0.00209352       0.00950723
H        1.98075953       1.29771299       3.68209137      -0.00339505      -0.00217381       0.00842742
H       -0.94901364       2.24344772       3.66503275      -0.00470436       0.00093077       0.00322326
H       -0.15677581      -0.30620493       5.17089789      -0.01074331      -0.00065826       0.00178685
H       -0.91429945      -2.68812713       3.27489351      -0.00476238      -0.00387357       0.00260327
H       -1.89030367      -1.53762110       1.04410891       0.00195934       0.00320008      -0.00946189
H        2.52692750      -0.20203334       1.15105935      -0.00832035       0.00849761      -0.04029075
H        0.73959763       2.45286486       1.23288257       0.00308461      -0.00789459      -0.00804898
H       -2.22856904       1.30773925       1.06469493       0.01189263       0.01731576       0.00415457
H       -2.71239470      -0.28066901       3.40752548      -0.00905021       0.00112631      -0.00714226
H        1.81278944       1.59344136      -1.03983164      -0.00064429      -0.00009912       0.00364234
H        2.71599248       0.30806738      -3.36359275       0.00290911       0.00741890      -0.00716741
H        1.06641486      -2.29225496      -3.57808094       0.00508717       0.00435431      -0.00938223
H       -1.90274229      -1.47910105      -3.66048369       0.00423597       0.00358734      -0.00823503
H        0.18427817       0.18465449      -5.15784097      -0.00051453       0.00924990      -0.00374463
H        0.80228175       2.64191945      -3.30737801       0.00062619       0.00716995      -0.00122283
H       -0.66846780       2.25411428      -1.09492447      -0.00064555      -0.00249723       0.00717203
H        2.27861379      -1.26806220      -1.03773682      -0.01043154      -0.00099289       0.04213587
H       -0.65441227      -2.51343667      -1.16651677       0.00935433       0.00714525       0.00995919
H       -2.52799282       0.07180225      -1.12017490       0.00205701      -0.02355421      -0.00767272
H       -1.99305050       1.61401042      -3.46362010      -0.00069033       0.00240398       0.00320546
