45
Properties=species:S:1:pos:R:3:forces:R:3 charge=-1 spin=1 energy=-242.32296752929688 free_energy=-242.32296752929688 stress="-1.1004519073765096e-08 5.617708520588849e-09 -4.820373877834072e-09 5.617708520588849e-09 4.5032528817046114e-08 4.795467845042367e-08 -4.820373877834072e-09 4.795467845042367e-08 8.04052575631431e-08" pbc="F F F"
C       -0.28776834      -1.45483242       1.58810745      -0.02130401      -0.00957066      -0.01395765
B        0.54268892      -1.46345859       3.05227119       0.00069771      -0.00085558       0.00784044
B        1.29776490       0.13898682       3.11226436       0.00041342       0.00020206      -0.00982282
B       -0.01128963       1.34918224       3.10704730       0.00706744       0.00337374      -0.00541194
B       -0.22194959      -0.19447557       4.00274401       0.00353726       0.00263068       0.00113262
B       -1.19384092      -1.24955896       3.03874090      -0.00746966      -0.00099187      -0.01454557
C       -1.46003857      -0.36234463       1.58309178       0.00889952      -0.02393496       0.00258806
B        1.21619292      -0.71837815       1.54955038       0.04091138      -0.01663557      -0.01890716
B        0.92538152       1.05819329       1.63600000       0.01993486      -0.04234377      -0.08753806
B       -0.84501166       1.19645700       1.53788102      -0.00671729       0.00830211      -0.00488113
B       -1.54031777       0.46917822       3.04232085      -0.01151352      -0.00196434      -0.01241456
C        1.13413668       0.97235401      -1.58216621      -0.00658113       0.01358697       0.00486845
B        1.62360766       0.25231490      -3.02451654       0.00072727       0.00866977       0.00135083
B        0.70177220      -1.25613115      -3.07500986       0.00639234       0.00126785       0.00886829
B       -1.02735525      -0.82614877      -3.10660610       0.00388718      -0.01259045       0.00566316
B        0.16061867       0.18262943      -4.00076325       0.00710704      -0.00662404      -0.00063557
B        0.49852632       1.59064368      -3.05707383      -0.00173021       0.00507394       0.01255333
C       -0.42324626       1.36035907      -1.61790516       0.01350199      -0.00676608      -0.00226268
B        1.33527066      -0.68506395      -1.49703989       0.03620240      -0.01486206       0.02703005
B       -0.27500000      -1.43300000      -1.61500000      -0.08670182       0.12332866       0.09431107
B       -1.39313126      -0.01590240      -1.57418390      -0.00645098       0.00226626      -0.00250168
B       -1.13362148       0.94081521      -3.07901866      -0.00589656       0.00553887       0.00720900
Co       0.00000000       0.00000000       0.00000000       0.09699376      -0.08384244       0.00674172
H       -0.45414752      -2.39535807       1.05566032       0.00290270       0.00846869       0.01611143
H        1.01926994      -2.48184073       3.44910045      -0.00318624      -0.00110207       0.00148526
H        2.33367585       0.30424777       3.68274770      -0.00651868       0.00235083      -0.00043031
H        0.07381769       2.39044767       3.68366864      -0.00401157       0.00974751      -0.00161081
H       -0.24437344      -0.21640411       5.19289262      -0.00061227       0.00334353       0.00368401
H       -1.97511097      -2.08996480       3.34579739       0.00111534       0.00180352      -0.00567365
H       -2.38668666      -0.60578616       1.05665343       0.00077651       0.00770805      -0.00164381
H        2.16389405      -1.31649248       1.13467088      -0.01567081       0.00437090       0.03736835
H        1.69827194       1.88099750       1.23093043      -0.02067466      -0.04099832       0.00254751
H       -1.50492773       2.08024287       1.07585765       0.00473060       0.00636285      -0.00771405
H       -2.59512504       0.86070561       3.43614137      -0.00943637       0.00056724      -0.00531015
H        1.82151829       1.63556195      -1.04985776      -0.01153140       0.00344883      -0.00685427
H        2.74416666       0.39923872      -3.40505724      -0.00303966       0.00875537       0.00832978
H        1.14087466      -2.21944714      -3.62728883       0.00292026       0.00314724       0.00549036
H       -1.84424832      -1.47721356      -3.68331740      -0.00253026      -0.00775044      -0.00287968
H        0.18127348       0.19444303      -5.19102051       0.00560418      -0.00564602      -0.00475177
H        0.78524588       2.69692661      -3.38034920      -0.00547851       0.00069872       0.00263700
H       -0.73670923       2.27960138      -1.11577616      -0.01788072       0.00195075      -0.00997615
H        2.34704714      -1.13805025      -1.05142482      -0.01527440       0.01778443      -0.03074259
H       -0.55734439      -2.51489150      -1.18412984       0.02096037       0.03266327      -0.00503295
H       -2.50476870       0.05445802      -1.13862969      -0.00894406      -0.01184138       0.00356329
H       -2.03049839       1.60303943      -3.50101500      -0.00612910       0.00090790      -0.00587536
