45
Properties=species:S:1:pos:R:3:forces:R:3 charge=-1 spin=1 energy=-242.29782104492188 free_energy=-242.29782104492188 stress="-9.058165062469925e-08 -3.100314727166875e-10 6.167118016264794e-08 -3.100314727166875e-10 -5.239730427319955e-08 5.8493125010272706e-08 6.167118016264794e-08 5.8493125010272706e-08 -2.067616122758409e-07" pbc="F F F"
C       -1.43437873      -0.07386249       1.55400000      -0.25801867      -0.06709021       0.21135953
B       -1.24502148      -0.88921702       3.02676094       0.00045968      -0.00017051       0.00396060
B        0.48514059      -1.22966425       3.08863890      -0.00213741       0.00081712       0.00112464
B        1.33769273       0.33814054       3.08470535      -0.00043909       0.00190662       0.00174142
B       -0.20575639       0.15820867       3.98058449      -0.00180633       0.00264548      -0.00062369
B       -1.46536987       0.84533366       3.01978601       0.00206337       0.00247031       0.00408977
C       -0.67929835       1.33018937       1.56400000       0.02764258       0.04766290       0.14782703
B       -0.36150944      -1.36539987       1.51366616       0.00126970       0.00140631       0.00160993
B        1.27039997      -0.63944805       1.60041107       0.00345615       0.00144452       0.00459634
B        0.98483579       1.12779055       1.53839614       0.00163569       0.00034067       0.00038418
B        0.11344478       1.60701490       3.02448049      -0.00303771      -0.00063908      -0.00041953
C        1.14300000       0.92400000      -1.55300000       0.14010502       0.00677717      -0.13368933
B        1.62044371       0.17397763      -2.98927948       0.00042542      -0.00071520      -0.00264284
B        0.66822895      -1.31208637      -3.01830838       0.00117347       0.00234963      -0.00057781
B       -1.05420877      -0.84824491      -3.06928162      -0.00060439       0.00092587      -0.00176244
B        0.15978024       0.12137550      -3.96288135      -0.00049582       0.00251587       0.00017087
B        0.52116264       1.53090975      -3.03457994      -0.00310963       0.00079966      -0.00360550
C       -0.40000000       1.32300000      -1.56800000      -0.14241481       0.20731746      -0.32515237
B        1.31741878      -0.74117951      -1.44513919      -0.00158376      -0.00134744       0.00000834
B       -0.33288751      -1.43150307      -1.54795037      -0.00278468      -0.00100097      -0.00474770
B       -1.42630799      -0.01260311      -1.55608346      -0.00103006      -0.00057407      -0.00213705
B       -1.12184966       0.91635555      -3.04538210       0.00199187       0.00153846       0.00020432
Co       0.00000000       0.00000000       0.00000000       0.24298751      -0.20207003       0.10184439
H       -2.40227736      -0.14486895       1.05026561      -0.00258292       0.00289686      -0.00611828
H       -2.12056329      -1.59653540       3.41840316      -0.00277531      -0.00111890      -0.00064121
H        0.90746813      -2.19148946       3.65577686      -0.00170963       0.00028218      -0.00020161
H        2.37201150       0.50400424       3.65582349       0.00035846      -0.00042306       0.00133097
H       -0.22854754       0.17297796       5.17031111      -0.00207370       0.00041548      -0.00212903
H       -2.47426348       1.39016167       3.32727708      -0.00089291       0.00061554      -0.00219417
H       -1.15467040       2.18019225       1.06544319       0.00385515      -0.00361033      -0.00558355
H       -0.70940916      -2.42825575       1.09362957      -0.00034337       0.00001710       0.00428054
H        2.26738063      -1.18627934       1.23477733       0.00210752       0.00017653       0.00445780
H        1.69040048       1.97681295       1.07928544      -0.00027139      -0.00033256      -0.00322872
H        0.22651657       2.72360097       3.42525005       0.00005555      -0.00209630      -0.00023857
H        1.85117028       1.58538419      -1.04771417      -0.00685027      -0.00022907       0.00520602
H        2.74316424       0.29808322      -3.36874666       0.00301695       0.00108061       0.00056809
H        1.08416818      -2.29834834      -3.54684807       0.00095738       0.00158010       0.00120593
H       -1.87369668      -1.49684402      -3.64499964       0.00023991      -0.00095148      -0.00095423
H        0.18494593       0.11630616      -5.15270566       0.00156427       0.00126478       0.00147299
H        0.82071019       2.63049710      -3.36650017       0.00046181       0.00226313       0.00154343
H       -0.69625070       2.27401046      -1.11433657      -0.00021995      -0.00502121       0.00532308
H        2.31315410      -1.21191922      -0.98559104      -0.00082077       0.00043037      -0.00349365
H       -0.62641276      -2.51606335      -1.14239631      -0.00111388      -0.00268617      -0.00505678
H       -2.53881132       0.07565622      -1.12420733       0.00026403      -0.00039191       0.00118497
H       -1.99491395       1.60416377      -3.47546033       0.00102477      -0.00147250      -0.00029700
