45
Properties=species:S:1:pos:R:3:forces:R:3 charge=-1 spin=1 energy=-242.26527404785156 free_energy=-242.26527404785156 stress="-5.433807004351365e-08 2.2714628400422043e-08 -1.4194852404614267e-08 2.2714628400422043e-08 -9.404075029806336e-08 1.0905159086860294e-07 -1.4194852404614267e-08 1.0905159086860294e-07 -1.2705018548331282e-07" pbc="F F F"
C        0.46636954      -1.35845407       1.55400000       0.11214012      -0.17409751       0.23355217
B        1.18135923      -0.96064073       3.03731963       0.00033284       0.00062233      -0.00052881
B        1.03967110       0.80358256       3.09689628       0.00323156      -0.00236429      -0.00258276
B       -0.69959895       1.19778244       3.07097177       0.00272186       0.00236240       0.00137503
B       -0.12175595      -0.24133212       3.97951325       0.00526677      -0.00032522       0.00034090
B       -0.43095143      -1.64368309       3.02229607       0.00195088       0.00015499      -0.00073110
C       -1.09142009      -1.01963336       1.56400000      -0.09463395      -0.01126599      -0.01597211
B        1.42947399       0.02062554       1.55375644      -0.00300607       0.00700907       0.00248039
B        0.28049526       1.39716530       1.60514023      -0.00035078      -0.00038978      -0.00100943
B       -1.34416543       0.64038673       1.51114227      -0.00479436      -0.00417549      -0.00305012
B       -1.58905780      -0.33037933       3.01634108      -0.00022247      -0.00272076      -0.00209694
C        1.14300000       0.92400000      -1.55300000       0.12256082       0.02405959      -0.09797455
B        1.62115240       0.19869103      -2.99834012      -0.00037406       0.00070059       0.00071409
B        0.67414537      -1.29529152      -3.03936998       0.00312914       0.00057262       0.00231758
B       -1.04964727      -0.83767654      -3.07861804       0.00184445      -0.00338793      -0.00123386
B        0.15469003       0.15168368      -3.96963948       0.00479031      -0.00080828      -0.00003066
B        0.51324677       1.55349787      -3.02955684       0.00235614      -0.00161213       0.00100688
C       -0.40000000       1.32300000      -1.56800000      -0.15188551       0.25959921      -0.21602637
B        1.33625042      -0.74109481      -1.48738077      -0.00589564      -0.00268417      -0.00245342
B       -0.31739776      -1.43424423      -1.57665261      -0.00015129       0.00022292       0.00053713
B       -1.41828451      -0.02001326      -1.55174937      -0.00220507       0.00623208       0.00336592
B       -1.12443289       0.93006809      -3.04800146       0.00141098       0.00235262       0.00138691
Co       0.00000000       0.00000000       0.00000000       0.00637090      -0.10077170       0.09888715
H        0.79832813      -2.26972198       1.04733685      -0.00236411       0.00028416      -0.00073414
H        2.09162211      -1.61628643       3.44100262       0.00047539       0.00175937      -0.00114399
H        1.83929964       1.46921754       3.68233898      -0.00003472      -0.00012989      -0.00239381
H       -1.15036793       2.14896831       3.63376583      -0.00002406       0.00202470       0.00187338
H       -0.13984383      -0.26285502       5.16967990       0.00210230       0.00042857       0.00078022
H       -0.68345933      -2.76377466       3.32507134       0.00089204       0.00132918       0.00051075
H       -1.77016633      -1.69636311       1.03634263       0.00190185       0.00169910       0.00126697
H        2.54339679      -0.02531946       1.12365342       0.00023762       0.00148717      -0.00889864
H        0.53255699       2.49338080       1.19287461      -0.00296184       0.00004629      -0.00097715
H       -2.35382068       1.07475904       1.04322957      -0.00065299      -0.00177935       0.00688232
H       -2.70251660      -0.51423781       3.40080545       0.00025907      -0.00005660       0.00195023
H        1.84548387       1.58361498      -1.03455767      -0.00080214      -0.00104518      -0.00202213
H        2.74116585       0.33828050      -3.38187402      -0.00099677      -0.00099824       0.00137526
H        1.08944563      -2.27006717      -3.58901706       0.00011248       0.00022532       0.00181183
H       -1.87040899      -1.48249423      -3.65758695      -0.00067212      -0.00175727      -0.00165785
H        0.17817496       0.15602260      -5.15986868       0.00127695      -0.00102469      -0.00025395
H        0.80888607       2.65915094      -3.34577212      -0.00020157      -0.00185877      -0.00007653
H       -0.70097838       2.25676521      -1.08178122      -0.00004874      -0.00201175      -0.00018051
H        2.32336068      -1.20795744      -1.00406345      -0.00086969      -0.00101031       0.00783938
H       -0.60633134      -2.50928986      -1.13506966      -0.00286265       0.00100733       0.00067183
H       -2.52942698       0.07194114      -1.12146463       0.00041747       0.00221800      -0.00736997
H       -2.00826021       1.61326113      -3.46427722       0.00022864      -0.00012232      -0.00152825
