45
Properties=species:S:1:pos:R:3:forces:R:3 charge=-1 spin=1 energy=-54314.36838437813 free_energy=-54314.36838437813 stress="-0.02719821222126484 -0.02027917094528675 -0.33135050535202026 -0.02027917094528675 -0.22565583884716034 0.18223410844802856 -0.33135050535202026 0.18223410844802856 2.346524238586426" pbc="F F F"
C       -0.96270652       1.09140630       1.54584171       0.00152964      -0.00253519      -0.00626479
B       -1.46331543       0.47773703       3.03987903       0.00441517       0.01783238      -0.03647568
B       -0.66642268      -1.09037181       3.15726247       0.01130354      -0.00212540      -0.01540252
B        1.08252133      -0.81632820       3.10210337      -0.00610562       0.00903757       0.01113767
B        0.03135352       0.32893348       3.98550916      -0.01265139      -0.00794261      -0.01389050
B       -0.22415474       1.73221641       2.93204389      -0.03487935      -0.00081382      -0.02954521
C        0.59033516       1.34068224       1.50328677      -0.02500628       0.02323359      -0.00981572
B       -1.33154456      -0.56063715       1.58411963      -0.01476949       0.00482638      -0.01726726
B        0.22549156      -1.38753651       1.63600000       0.23548371      -0.15963581      -0.35764435
B        1.46367168      -0.10735639       1.51472048       0.03999715      -0.00540176      -0.01838197
B        1.34670630       0.92247329       2.96464041       0.00694918      -0.01103727      -0.00673109
C        1.01952327       0.99315564      -1.57849394      -0.00458976       0.00287744       0.00525668
B        1.50196810       0.31811393      -3.05093682      -0.00481356       0.01870027       0.03315856
B        0.63724839      -1.21529884      -3.13425735      -0.01063749       0.00073130       0.01575280
B       -1.09819090      -0.86323026      -3.09870035       0.00778425       0.00624708      -0.00870451
B        0.00809629       0.21136909      -4.00381552       0.01324661      -0.00889049       0.01364644
B        0.31916094       1.62891955      -2.98582493       0.02947042       0.00098910       0.02760650
C       -0.52150545       1.31207773      -1.55300464       0.03039079       0.02712326       0.00770687
B        1.31289302      -0.67318730      -1.56872949       0.01505072       0.00403664       0.01877756
B       -0.27500000      -1.43300000      -1.61500000      -0.26137632      -0.09834637       0.42763895
B       -1.45504426      -0.09757641      -1.53015243      -0.03819147      -0.00545220       0.01735074
B       -1.28668189       0.88760350      -3.00732708      -0.00523726      -0.00477314       0.00557969
Co       0.00000000       0.00000000       0.00000000       0.04309443       0.24253976      -0.06270292
H       -1.59531803       1.82044087       1.06356855       0.00353584      -0.03251740      -0.02677798
H       -2.53166945       0.78319099       3.44876201      -0.00014050      -0.01237386      -0.01455425
H       -1.16342768      -1.98159619       3.75765866      -0.00783898      -0.00379106      -0.00839783
H        1.87066542      -1.50358558       3.65925206      -0.01229558       0.00680988       0.01060117
H        0.05051116       0.45487535       5.16487798      -0.01351564       0.00396065      -0.01054408
H       -0.38767968       2.87303631       3.20057710      -0.00669752      -0.00727571      -0.00898790
H        0.93867122       2.23091352       1.00122600       0.00217955      -0.00479539      -0.01530380
H       -2.37769674      -0.95726107       1.19755099       0.01005506      -0.00678758      -0.03338806
H        0.39985263      -2.51579864       1.31127771       0.00578086       0.00825765      -0.00311276
H        2.55673388      -0.14477224       1.05627581      -0.02795603      -0.00447623      -0.00500380
H        2.29679500       1.54164679       3.30388041       0.00071881       0.01281375       0.01244119
H        1.68234502       1.70531205      -1.11207394      -0.00713111      -0.02597522       0.02780696
H        2.58625264       0.56420751      -3.45773373      -0.00071775      -0.00865384       0.01027101
H        1.09882115      -2.14341386      -3.70645679       0.00774546      -0.00139809       0.00777247
H       -1.91176855      -1.52942806      -3.64464514       0.00873202       0.00673964      -0.00699915
H        0.00272061       0.30719222      -5.18613492       0.00929205       0.00325323       0.00927771
H        0.53550728       2.75395342      -3.28221833       0.00225073      -0.00735410       0.00688019
H       -0.83379267       2.23061204      -1.07876852      -0.00039887      -0.00297081       0.01180335
H        2.33771840      -1.10838616      -1.16713948      -0.01024185       0.00301205       0.03967847
H       -0.50000859      -2.54269889      -1.25932974      -0.00530954       0.00886465       0.00373463
H       -2.55111092      -0.07792777      -1.07742315       0.02497726       0.00052564       0.00215750
H       -2.20573366       1.53886942      -3.37088701      -0.00348206       0.01291138      -0.01014061
