45
Properties=species:S:1:pos:R:3:forces:R:3 charge=-1 spin=1 energy=-242.28128051757812 free_energy=-242.28128051757812 stress="-8.874344814557844e-09 5.165003091889275e-09 -3.5200102388444066e-08 5.165003091889275e-09 2.9484267471957537e-08 3.249104096880728e-08 -3.5200102388444066e-08 3.249104096880728e-08 2.8078494196392967e-08" pbc="F F F"
C        0.87492417       1.19401591       1.59574102       0.01480415       0.01505317       0.01684016
B        0.12467882       1.55243455       3.05049764      -0.00758990      -0.01114537       0.00668162
B       -1.23544440       0.42485317       3.11261676       0.00496776      -0.00225354       0.00355530
B       -0.55954256      -1.22634287       3.10548207      -0.00230099      -0.00274408      -0.00095134
B        0.28321380       0.07397650       4.00284203      -0.00417584      -0.00157260       0.00257848
B        1.61219448       0.61727969       3.03834776      -0.01005813      -0.00263925       0.01710901
C        1.48206584      -0.28893854       1.58852114       0.00260857      -0.02783915       0.01432052
B       -0.79995512       1.17400953       1.55761909      -0.01029413       0.00297412       0.01533428
B       -1.28786702      -0.56347363       1.63600000       0.07417601       0.11024598      -0.18911721
B        0.25634311      -1.42855794       1.50605685       0.00278687      -0.01196712       0.03335521
B        1.19926225      -1.08120461       3.04257377      -0.00494286      -0.00213051      -0.00648110
C        1.12868669       0.97289016      -1.58791113       0.00154257       0.02828851      -0.01763323
B        1.62298936       0.25040541      -3.01794295      -0.00829394      -0.00135776      -0.00983796
B        0.70518814      -1.25735086      -3.07355032      -0.00349434       0.00350504      -0.00709281
B       -1.02494386      -0.82471782      -3.10583431      -0.00264841      -0.00242400       0.00154045
B        0.15760180       0.17983871      -4.00014595      -0.00483253      -0.00067863      -0.00331648
B        0.49046476       1.59030664      -3.05626418      -0.00891634      -0.00361684      -0.00600483
C       -0.42580954       1.36489635      -1.62011460      -0.02588087      -0.00870481      -0.01801464
B        1.34545955      -0.68570598      -1.51608398       0.00486860      -0.01115681      -0.01746729
B       -0.27500000      -1.43300000      -1.61500000      -0.03503770       0.20679876       0.16021891
B       -1.38018078      -0.01385741      -1.53872963      -0.01031566      -0.00307053      -0.02151122
B       -1.13532594       0.94025835      -3.08184309      -0.00418883      -0.00390714       0.01211459
Co       0.00000000       0.00000000       0.00000000       0.01503960      -0.23477942       0.02820187
H        1.43900973       1.98404457       1.09278934       0.01835013       0.02433160       0.01460911
H        0.13542648       2.67463635       3.45361327      -0.00248304      -0.00727633       0.00244479
H       -2.24155374       0.71069758       3.68800821       0.00053272      -0.00467927       0.00395559
H       -1.07755968      -2.13835280       3.67630746       0.00496333      -0.01026501      -0.00637050
H        0.31342447       0.08704109       5.19241946       0.00030418      -0.00555771       0.00119700
H        2.67547493       1.04827801       3.34622853      -0.00937948      -0.00053476       0.00355731
H        2.42360246      -0.46513920       1.06262832       0.01243584      -0.00207535       0.02557993
H       -1.40967109       2.10331516       1.11462205       0.00398226       0.00545514      -0.01850062
H       -2.33076120      -0.98274704       1.22916337      -0.01833264       0.00687297      -0.00159628
H        0.48592108      -2.52075240       1.07864076      -0.01148637      -0.00348621      -0.01485372
H        1.98475750      -1.88930999       3.43221284      -0.00659995       0.00383776      -0.00627966
H        1.82030571       1.65052048      -1.08016787       0.01991019       0.02606131      -0.01905769
H        2.74084394       0.40879196      -3.40055162      -0.00187427       0.00518776      -0.00339824
H        1.14221773      -2.22015970      -3.62722559       0.00158049      -0.00195754      -0.00587641
H       -1.84379129      -1.47740761      -3.67975046      -0.00595438       0.00033838       0.00447174
H        0.18609540       0.18972238      -5.18975528       0.00024203      -0.00189076      -0.00185654
H        0.77730807       2.69658540      -3.37999779      -0.00756809      -0.00766048      -0.00429602
H       -0.74354198       2.28531892      -1.12109198      -0.01047558      -0.00406726      -0.03205834
H        2.34153764      -1.14276384      -1.04039217       0.02078946       0.00155647       0.01039338
H       -0.55999585      -2.50977955      -1.18578010       0.01072603      -0.02980405       0.00861112
H       -2.50511567       0.06017039      -1.13884956       0.00067063      -0.01793292       0.01945899
H       -2.03546463       1.59779273      -3.50551998       0.00184308      -0.01133122       0.00544243
