45
Properties=species:S:1:pos:R:3:forces:R:3 charge=-1 spin=1 energy=-54314.41146756905 free_energy=-54314.41146756905 stress="1.0909404754638672 -0.38521280884742737 0.25493520498275757 -0.38521280884742737 1.013973355293274 -0.7128592133522034 0.25493520498275757 -0.7128592133522034 1.1376066207885742" pbc="F F F"
C        1.35845407       0.46636954       1.55400000       0.05636415      -0.21251239      -0.06877695
B        0.96002705       1.21563925       3.01594978       0.00279728       0.00003658      -0.00227001
B       -0.80280155       1.09473132       3.09914362       0.00333945      -0.00220568       0.00021667
B       -1.22110817      -0.62626769       3.07897432       0.00069911      -0.00071344       0.00173380
B        0.22038428      -0.07201225       3.97965610       0.00079826       0.00139098      -0.00222803
B        1.64024232      -0.41589806       2.96787817       0.00014811       0.00029946      -0.00091957
C        1.01963336      -1.09142009       1.56400000      -0.62674558       0.53012025      -0.28848734
B       -0.01613858       1.44900827       1.55227329       0.00176262       0.00010655      -0.00162542
B       -1.40202318       0.33020992       1.58377115      -0.00439814       0.00064015       0.00224635
B       -0.67859085      -1.30571548       1.51341970       0.00214265       0.00390903       0.00197915
B        0.28019508      -1.55071566       3.00494390       0.00115046       0.00130670       0.00158144
C        1.14300000       0.92400000      -1.55300000      -0.39173546       0.02771077       0.19728045
B        1.63582447       0.19628463      -2.99071684      -0.00024593       0.00248863      -0.00003666
B        0.69803249      -1.30006280      -3.06839644      -0.00001575       0.00335970      -0.00207133
B       -1.01870802      -0.86560121      -3.09703470       0.00114962       0.00082258      -0.00179688
B        0.16778951       0.13875870      -3.98031911       0.00024713       0.00157449       0.00246225
B        0.51123281       1.56127599      -2.97476178       0.00060547       0.00030678       0.00271558
C       -0.40000000       1.32300000      -1.56800000       0.01945933      -0.21296540       0.16882171
B        1.34057202      -0.74546797      -1.51195612      -0.00037638       0.00261276      -0.00092923
B       -0.29258410      -1.44907145      -1.57523841      -0.00142842      -0.00415103      -0.00197101
B       -1.40781824      -0.05497132      -1.55084769       0.00288089      -0.00057905      -0.00241066
B       -1.12714413       0.89394814      -3.03577340       0.00133159       0.00059775      -0.00016862
Co       0.00000000       0.00000000       0.00000000       0.91281515      -0.16450430      -0.00573569
H        2.28269063       0.74509110       1.07185338      -0.00178839      -0.00020068      -0.00308794
H        1.64782202       2.09518869       3.41011199       0.00187122      -0.00096842       0.00042486
H       -1.44258452       1.91733797       3.66350331       0.00423645      -0.00257940       0.00077516
H       -2.16615618      -1.07170435       3.63770351       0.00079803       0.00027745       0.00449018
H        0.30161682      -0.10009626       5.16251994       0.00342011      -0.00030430      -0.00350468
H        2.74786720      -0.67894880       3.28646185      -0.00042850       0.00036854      -0.00201322
H        1.69614166      -1.75474464       1.05454212      -0.00121957       0.00235629      -0.00162749
H        0.05086896       2.54887337       1.09747425      -0.00082751      -0.00395883       0.00001896
H       -2.50444421       0.60018435       1.23662263       0.00419197      -0.00017517       0.00010912
H       -1.14917786      -2.30372674       1.08740419       0.00304411       0.00719432       0.00156685
H        0.46292903      -2.64994000       3.40295232       0.00205372       0.00112934       0.00133605
H        1.80599681       1.61409623      -1.05566315      -0.00175981      -0.00071625       0.00268856
H        2.74363690       0.38133667      -3.36579181      -0.00148246       0.00245681      -0.00066513
H        1.13734264      -2.26116262      -3.60479428      -0.00030290       0.00376937      -0.00324427
H       -1.84024643      -1.49834730      -3.67009871       0.00117994       0.00221391      -0.00328702
H        0.20390409       0.21296405      -5.16342357       0.00062790       0.00376447       0.00397546
H        0.78716250       2.66576949      -3.29297879      -0.00059018      -0.00075861       0.00232618
H       -0.67926038       2.25057395      -1.09724706       0.00167526      -0.00152786       0.00202959
H        2.32835208      -1.20459455      -1.02845455      -0.00692638       0.00188665      -0.00062913
H       -0.56900892      -2.54597855      -1.21797240       0.00187274       0.00530951      -0.00014485
H       -2.51836365       0.01159071      -1.14845826       0.00547537      -0.00051670      -0.00109665
H       -1.99688306       1.57811961      -3.45456211       0.00213360       0.00132737      -0.00005022
