45
Properties=species:S:1:pos:R:3:forces:R:3 charge=-1 spin=1 energy=-242.29000854492188 free_energy=-242.29000854492188 stress="-4.705404066385199e-08 7.66539809404776e-09 -5.1422848201809757e-08 7.66539809404776e-09 -8.958165409467256e-08 5.8093338139997286e-08 -5.1422848201809757e-08 5.8093338139997286e-08 -2.1536807537358982e-07" pbc="F F F"
C        1.25683188       0.69517741       1.55400000       0.11284104       0.15534867       0.30238026
B        0.72402988       1.33625829       3.02619888       0.00120474       0.00020455      -0.00216926
B       -0.98575550       0.89423796       3.08060895      -0.00041945       0.00138785       0.00109563
B       -1.07190288      -0.88779435       3.05731154      -0.00001343      -0.00119860      -0.00051528
B        0.23301363      -0.07183653       3.97256990       0.00032230       0.00021188       0.00125562
B        1.67508708      -0.13757585       3.02613087      -0.00035921      -0.00031111      -0.00275088
C        1.19366595      -0.89778149       1.56400000       0.00748760      -0.08937369       0.08543111
B       -0.26981541       1.41040855       1.54747202       0.00415488      -0.00101170      -0.00299004
B       -1.42689698       0.04381183       1.57880814       0.00345591      -0.00202142      -0.00647120
B       -0.39805642      -1.42025086       1.47922232      -0.00183410       0.00178319       0.00061268
B        0.58335570      -1.50197985       3.01543488       0.00061222       0.00022527      -0.00231738
C        1.14300000       0.92400000      -1.55300000       0.08864497      -0.02273732      -0.20573506
B        1.61664215       0.19627841      -2.99875635      -0.00052786       0.00215699       0.00119233
B        0.67290648      -1.29490040      -3.04722084       0.00048462       0.00045849      -0.00300090
B       -1.05216359      -0.83702245      -3.07664279      -0.00146940       0.00037295      -0.00014442
B        0.14419549       0.14932655      -3.97062291      -0.00051955       0.00110085      -0.00166265
B        0.50372346       1.55011635      -3.02856118      -0.00043511       0.00026184       0.00284456
C       -0.40000000       1.32300000      -1.56800000      -0.15612975       0.31539705      -0.23760076
B        1.34159366      -0.74309776      -1.50658249       0.00057656       0.00316763      -0.00125867
B       -0.30749143      -1.43667946      -1.57154113      -0.00105098       0.00392085       0.00526828
B       -1.40378558      -0.02362268      -1.51923779       0.00148883      -0.00321530       0.00105114
B       -1.13079342       0.92467956      -3.04446643      -0.00093816       0.00094862       0.00279099
Co       0.00000000       0.00000000       0.00000000      -0.05051378      -0.37285730       0.06712613
H        2.11339371       1.17886780       1.07499266       0.00071155      -0.00095485       0.00669968
H        1.21414752       2.34279680       3.43489379      -0.00066426       0.00013125      -0.00014143
H       -1.78499584       1.56548426       3.65896330      -0.00174128       0.00176400       0.00065960
H       -1.93771314      -1.49958549       3.60610768      -0.00081447       0.00048596       0.00088724
H        0.25091186      -0.08117753       5.16232587      -0.00030722       0.00112303       0.00196037
H        2.81785622      -0.19160852       3.34303962      -0.00114557       0.00075023       0.00075170
H        1.98155931      -1.45434315       1.05122617      -0.00258642      -0.00101070       0.00785876
H       -0.42712821       2.50754177       1.09525970       0.00153092       0.00062924       0.00481398
H       -2.55437059       0.09310480       1.18454942       0.00117018       0.00060637       0.00082016
H       -0.65198075      -2.50179399       1.04269182       0.00111723       0.00142686       0.00269506
H        0.94783440      -2.56824989       3.40357418      -0.00018863       0.00138846       0.00146620
H        1.85150876       1.59553498      -1.05939766      -0.00091168       0.00087015      -0.00672824
H        2.73280600       0.34333110      -3.38912696      -0.00183085       0.00121612      -0.00148922
H        1.08363171      -2.26940398      -3.59947060      -0.00029022      -0.00025195      -0.00353989
H       -1.87978049      -1.48358988      -3.64395178      -0.00127149       0.00000460      -0.00090930
H        0.16769332       0.15620907      -5.16025628      -0.00149246       0.00168788      -0.00238171
H        0.79774937       2.65468359      -3.34903209      -0.00112256      -0.00019023      -0.00012922
H       -0.70288763       2.25595273      -1.08301212      -0.00033496      -0.00313006      -0.00540002
H        2.32726391      -1.22067411      -1.02809328       0.00130136      -0.00018191      -0.00965568
H       -0.60476495      -2.52565397      -1.18193788       0.00063042       0.00086866      -0.00318806
H       -2.51835922       0.06716117      -1.09772895       0.00196578      -0.00163920       0.00029800
H       -2.02027647       1.60279052      -3.45623941      -0.00078817       0.00018604       0.00021963
