45
Properties=species:S:1:pos:R:3:forces:R:3 charge=-1 spin=1 energy=-242.22702026367188 free_energy=-242.22702026367188 stress="1.7019258891082245e-08 4.834859623770171e-09 -1.329841659014619e-08 4.834859623770171e-09 7.096623022562198e-08 6.996657475610846e-09 -1.329841659014619e-08 6.996657475610846e-09 7.81004629857307e-08" pbc="F F F"
C        0.01271725       1.47478977       1.58308937      -0.02396137      -0.00112641       0.02150428
B       -0.80464215       1.33579987       3.03885018      -0.00284536       0.01157579       0.00431888
B       -1.24353792      -0.37218694       3.12146335      -0.01270828       0.00085685      -0.00763874
B        0.26539642      -1.31500341       3.12113525       0.00104577      -0.01826966      -0.00112763
B        0.19039765       0.24330704       4.00061637       0.00144255       0.00345684       0.01424074
B        0.95061033       1.44749955       3.01625545      -0.00261019       0.00836641       0.01950672
C        1.37703661       0.61608717       1.58348962       0.01057409      -0.01103315       0.02037615
B       -1.33602928       0.47103772       1.55453584      -0.00403821      -0.00702247       0.01062959
B       -0.71070482      -1.21284898       1.63600000       0.02993369       0.16162398      -0.16945805
B        1.05218794      -1.02544378       1.53564002       0.00245842       0.00088204       0.00728844
B        1.60723527      -0.17681248       3.04344529       0.01697681       0.00328287      -0.00189909
C        1.15165148       0.95458949      -1.58281829       0.01095901      -0.02616432      -0.02335146
B        1.62786919       0.24476094      -3.02401825       0.00737857       0.01635237       0.00319852
B        0.69721160      -1.24963823      -3.09390238       0.00807466      -0.00965840       0.00801370
B       -1.02603715      -0.81021081      -3.11484051      -0.01508924      -0.01187715       0.00137064
B        0.15765200       0.20295278      -3.99709703       0.00528017       0.00199126      -0.01322917
B        0.50391530       1.59555010      -3.02831325       0.00143405       0.00442733      -0.01388276
C       -0.41602054       1.35597391      -1.60324187       0.00832763       0.01050910      -0.02779505
B        1.34897948      -0.70941343      -1.52406936      -0.01992425       0.00792488      -0.01024607
B       -0.27500000      -1.43300000      -1.61500000      -0.02381089       0.22995189       0.15303025
B       -1.38500558      -0.02012679      -1.55446931      -0.00372618      -0.00336242      -0.00488611
B       -1.13159866       0.95206564      -3.06158069      -0.01168766       0.00806293      -0.00952984
Co       0.00000000       0.00000000       0.00000000       0.11884903      -0.32885057       0.02168184
H        0.00085692       2.44365508       1.07564171       0.00469098       0.00989127       0.00511765
H       -1.45232783       2.25605524       3.43634019       0.01429869      -0.02112126      -0.00462912
H       -2.21975741      -0.72809973       3.70924275      -0.00966178      -0.00086633      -0.00845754
H        0.37636348      -2.34937668       3.70651129       0.00306499      -0.01393713      -0.00533019
H        0.21721595       0.29504622       5.18936619      -0.00443989      -0.01432300      -0.00423685
H        1.56272445       2.42248251       3.31335351      -0.01599285      -0.02427354      -0.00274681
H        2.25315031       1.01507977       1.06575054      -0.01019348       0.03924271       0.00597532
H       -2.37483876       0.85316771       1.10265125       0.00168049       0.01397442       0.01158409
H       -1.31099399      -2.17870033       1.27052976      -0.01197929      -0.01417110      -0.03144315
H        1.86563270      -1.78664068       1.10585661      -0.00153909       0.00652778      -0.00096291
H        2.71519164      -0.36676189       3.44412393      -0.02249128       0.00657632      -0.02067247
H        1.86043085       1.61386718      -1.07380730      -0.02438270       0.02032978      -0.00762747
H        2.74332473       0.40187535      -3.41900400      -0.02964716      -0.00250398       0.01631030
H        1.11989836      -2.20534618      -3.67095904       0.00784881      -0.01004443       0.01196196
H       -1.84399057      -1.45291545      -3.70038262      -0.01163974      -0.00855596       0.00481869
H        0.18431121       0.24534833      -5.18613126      -0.00474313      -0.01681121       0.00207390
H        0.79566843       2.70592749      -3.33793208      -0.01545101      -0.03191271      -0.00023793
H       -0.73000108       2.27967593      -1.10919253       0.00691971       0.01452186      -0.00944899
H        2.33635585      -1.18782410      -1.05505627       0.01661357       0.01570490      -0.00738917
H       -0.56019430      -2.52701828      -1.23100481      -0.00814709      -0.01012250       0.03333302
H       -2.50231046       0.04240619      -1.13396134      -0.00297730       0.00462943       0.00282028
H       -2.02810756       1.62059593      -3.47788494       0.01583570      -0.01465537       0.00707169
