45
Properties=species:S:1:pos:R:3:forces:R:3 charge=-1 spin=1 energy=-242.2298126220703 free_energy=-242.2298126220703 stress="-8.090479752809188e-08 3.4783198543664184e-08 3.9229110626592956e-08 3.4783198543664184e-08 -5.876334441268227e-08 1.6813560321793375e-08 3.9229110626592956e-08 1.6813560321793375e-08 -1.9911601611966034e-07" pbc="F F F"
C       -1.08311490       0.94327096       1.55400000      -0.24306861       0.11160287       0.21589810
B       -1.51138081       0.21297339       3.01944460       0.00004976       0.00078764      -0.00150486
B       -0.50812667      -1.23817692       3.06717049      -0.00329790       0.00124970       0.00058591
B        1.19595551      -0.70689835       3.05896405       0.00093912       0.00014122       0.00296991
B       -0.03113478       0.23129149       3.96844645      -0.00129912      -0.00019248       0.00013748
B       -0.45915930       1.61111739       3.02097775      -0.00114415      -0.00000136      -0.00196103
C        0.43538084       1.42873844       1.56400000       0.07230856      -0.00530690       0.16499504
B       -1.22577569      -0.73289321       1.51355108       0.00038213      -0.00395957       0.00334725
B        0.45348226      -1.34669909       1.56551670      -0.00028063       0.00213808      -0.00584278
B        1.49424361       0.12531689       1.52571761      -0.00021270       0.00211146      -0.00526202
B        1.20253814       1.05746200       3.01731978       0.00091696       0.00088854      -0.00057565
C        1.14300000       0.92400000      -1.55300000       0.14342648      -0.00825983      -0.16732164
B        1.61502935       0.17204065      -2.98804548       0.00013959      -0.00045483       0.00178012
B        0.66672066      -1.31674911      -3.01180679       0.00400330       0.00101380       0.00090502
B       -1.05725176      -0.85796943      -3.05235070       0.00103146      -0.00092964      -0.00312956
B        0.14758137       0.11296981      -3.95577364       0.00232035      -0.00231896       0.00073338
B        0.50940818       1.52624411      -3.03154915       0.00270740      -0.00102681       0.00131541
C       -0.40000000       1.32300000      -1.56800000      -0.17104436       0.20651086      -0.27936327
B        1.33280632      -0.74297687      -1.45777936       0.00074536      -0.00382411      -0.00175479
B       -0.31945076      -1.43097055      -1.52524301      -0.00058083       0.00182390       0.00541170
B       -1.42875661      -0.01541011      -1.54464943       0.00163227       0.00258125       0.00637321
B       -1.13042373       0.90601823      -3.03639245      -0.00063891      -0.00087511      -0.00163349
Co       0.00000000       0.00000000       0.00000000       0.18861121      -0.29757708       0.05633437
H       -1.83299754       1.57161874       1.06228682       0.00078315      -0.00037226       0.00016994
H       -2.62894746       0.31869473       3.41983015       0.00117016      -0.00009947      -0.00036462
H       -0.86831882      -2.22784141       3.62937020      -0.00136565       0.00063476       0.00067148
H        2.05430207      -1.31724971       3.62019238       0.00241053      -0.00119685       0.00196896
H       -0.03424506       0.24822799       5.15800034       0.00065369       0.00033810       0.00026944
H       -0.80337203       2.70155001       3.34016756       0.00043667       0.00035587       0.00053564
H        0.68845131       2.37367702       1.07275986       0.00020513       0.00044528      -0.00020412
H       -2.21553731      -1.23810306       1.07223000       0.00160503       0.00054058      -0.00094967
H        0.78813893      -2.42902349       1.18158120       0.00299015      -0.00090814       0.00264460
H        2.57951132       0.25187479       1.04198529      -0.00551391      -0.00317264      -0.00543129
H        2.06141640       1.77480772       3.42708348       0.00172748       0.00067899      -0.00060149
H        1.85627032       1.58923732      -1.05726868      -0.00073732      -0.00011465       0.00000404
H        2.73285518       0.30526459      -3.37901072      -0.00061014      -0.00119948       0.00183579
H        1.07693694      -2.30393992      -3.54317695       0.00204858       0.00031747       0.00166408
H       -1.87686271      -1.51376042      -3.62033005      -0.00085382      -0.00187742      -0.00140963
H        0.16815850       0.10723477      -5.14538501       0.00076741      -0.00148997       0.00086123
H        0.80461531       2.62576642      -3.36832780       0.00038276      -0.00028318      -0.00133124
H       -0.70102110       2.27291667      -1.11330885      -0.00046626       0.00182268       0.00030290
H        2.32856099      -1.20090921      -0.98334503      -0.00364017       0.00199900       0.00601790
H       -0.60631868      -2.51789484      -1.11695983      -0.00245345      -0.00168411      -0.00283426
H       -2.53005716       0.07516639      -1.08718448       0.00384590      -0.00112656       0.00419626
H       -2.00642429       1.58920542      -3.46809825      -0.00103256       0.00026926      -0.00045356
