45
Properties=species:S:1:pos:R:3:forces:R:3 charge=-1 spin=5 energy=-54312.624268548665 free_energy=-54312.624268548665 stress="-0.23170091211795807 -1.2841459512710571 -1.0303202867507935 -1.2841459512710571 -2.2837753295898438 0.726456344127655 -1.0303202867507935 0.726456344127655 -5.402825355529785" pbc="F F F"
C        0.37300000       1.38700000       1.55400000       0.73262191       0.46320161       0.87819302
B       -0.34091442       1.59853769       3.07886750       0.00517397      -0.00011387       0.00071730
B       -1.20282264       0.06395471       3.35249593      -0.00305864      -0.00021084      -0.00222133
B        0.00903244      -1.24103194       3.35334679       0.00305947      -0.00165084       0.00060823
B        0.41133904       0.34821130       4.09467309      -0.00203682      -0.00043878      -0.00016340
B        1.39911368       1.24512386       2.91215523      -0.00125795      -0.00030155       0.00106213
C        1.47500000       0.23500000       1.56400000       0.08808474       0.43418455       0.76822042
B       -1.17309020       0.79535721       1.73889521      -0.00032960      -0.00384026      -0.00105479
B       -0.97794773      -0.95753094       1.88756745      -0.00505711      -0.00067689       0.00295581
B        0.75773345      -1.26570826       1.73781297       0.00280846       0.00176929       0.00159480
B        1.60705192      -0.51208919       3.09486392       0.00142497      -0.00221017      -0.00690969
C        1.14300000       0.92400000      -1.55300000      -0.08873755       0.66513532      -0.73321110
B        1.68202174       0.35748367      -3.05322311       0.00071272       0.00107882       0.00476088
B        0.74446252      -1.13376727      -3.30437493       0.00386135      -0.00181861       0.00143265
B       -0.97934483      -0.68994815      -3.34698708      -0.00054423      -0.00000420      -0.00051096
B        0.23708154       0.40657582      -4.08737200       0.00179501      -0.00169394       0.00007320
B        0.54055512       1.72329443      -2.92549643      -0.00062452      -0.00166789      -0.00018405
C       -0.40000000       1.32300000      -1.56800000       0.24603452       0.68915868      -1.10989380
B        1.34398668      -0.72309288      -1.68533051      -0.00145844      -0.00186062       0.00060210
B       -0.28579966      -1.39254142      -1.85223208       0.00062002      -0.00292875      -0.00386532
B       -1.39130652      -0.01443105      -1.75619194      -0.00037667       0.00276814       0.00112621
B       -1.09940759       1.06871358      -3.11573336       0.00127010       0.00106134       0.00071225
Co       0.00000000       0.00000000       0.00000000      -0.97474033      -2.22201514       0.19242474
H        0.61725188       2.28934880       1.00856878      -0.00054181       0.00289526      -0.00496825
H       -0.65281664       2.68902220       3.42446820      -0.00015392      -0.00117472       0.00022823
H       -2.19186967       0.04350993       4.00874011       0.00142529      -0.00127284       0.00059080
H       -0.09558025      -2.22120015       4.01457427      -0.00000749      -0.00171287       0.00051931
H        0.57382585       0.50740311       5.25927533       0.00061480      -0.00116612      -0.00021961
H        2.24748815       2.04765158       3.10112475      -0.00332099      -0.00159986       0.00062053
H        2.38181634       0.39401031       0.99863495       0.00050635      -0.00257454      -0.00653514
H       -2.07337253       1.39960912       1.24572245      -0.00143214       0.00066285       0.00049846
H       -1.82544536      -1.73880628       1.59229348      -0.00302679      -0.00321829       0.00306046
H        1.27393028      -2.22100385       1.25581046       0.00251696      -0.00183208       0.00133804
H        2.66307931      -0.90843249       3.45614361      -0.00149412       0.00208793       0.00032191
H        1.80824572       1.57326500      -1.00011649       0.00348684       0.00047024       0.00385855
H        2.79464131       0.59335024      -3.38824577      -0.00095458      -0.00277687      -0.00090122
H        1.20670722      -2.02788142      -3.93382777      -0.00350345       0.00015246      -0.00251707
H       -1.78101842      -1.25835188      -4.01251071      -0.00379564       0.00044680       0.00174772
H        0.31455789       0.60492094      -5.25464874      -0.00197195       0.00028783       0.00062725
H        0.83352076       2.85097386      -3.12978993       0.00107931      -0.00478550       0.00126433
H       -0.69924918       2.22032387      -1.04361005      -0.00089022       0.00154150       0.00459759
H        2.29165510      -1.22165864      -1.16611707       0.00295133      -0.00051759      -0.00167853
H       -0.57166922      -2.50307814      -1.53570784       0.00131959      -0.00297433      -0.00306930
H       -2.48568082       0.00111291      -1.29302254      -0.00375474      -0.00121536       0.00167909
H       -1.94150526       1.80620859      -3.50254887       0.00170217       0.00135077       0.00246800
