45
Properties=species:S:1:pos:R:3:forces:R:3 charge=-1 spin=1 energy=-54314.50275899666 free_energy=-54314.50275899666 stress="1.207424283027649 0.4397771656513214 -1.04494309425354 0.4397771656513214 0.5146260857582092 -0.6136455535888672 -1.04494309425354 -0.6136455535888672 0.5673101544380188" pbc="F F F"
C       -0.62629103      -1.29253919       1.55400000       0.00613749       0.26490226      -0.17263106
B        0.19110746      -1.51045214       3.01476413      -0.02059423       0.00646745       0.01787029
B        1.32056251      -0.15074670       3.10643138      -0.01158462      -0.01430146       0.00740980
B        0.36699069       1.34108224       3.10003801       0.00212418      -0.00759943       0.01827660
B       -0.23056930      -0.09203201       3.98733068      -0.00810817       0.01356608       0.00323388
B       -1.45735276      -0.87678749       2.96556410      -0.00027640       0.01038816       0.00142415
C       -1.49290830       0.04554994       1.56400000       0.43471423      -0.06696311      -0.23260193
B        1.04151129      -0.97329433       1.54835142      -0.01106568      -0.01061950      -0.01439006
B        1.18078320       0.80410939       1.60011224       0.00697384      -0.01870455       0.01759934
B       -0.49448582       1.40969675       1.54366317       0.01973816       0.01467282       0.01892438
B       -1.33901911       0.89198936       3.01685445      -0.00078630       0.00556695      -0.00191289
C        1.14300000       0.92400000      -1.55300000      -0.47361362      -0.28837353       0.34180248
B        1.60562073       0.15603527      -2.97504619      -0.00992164       0.01631415      -0.01644448
B        0.63746752      -1.32244867      -3.03919381       0.01741219       0.01306468      -0.00471835
B       -1.06976269      -0.85494716      -3.08693839       0.01772421      -0.00397289      -0.02406834
B        0.14056945       0.11764221      -3.97085237      -0.00858134       0.00166711      -0.00515122
B        0.51099592       1.54559410      -2.97772931      -0.00606064      -0.00235546      -0.00252383
C       -0.40000000       1.32300000      -1.56800000       0.06592820       0.07342948      -0.04189895
B        1.30529541      -0.76492173      -1.47593814       0.01146636       0.01538085       0.01518433
B       -0.34796965      -1.43279063      -1.55328467       0.02451127      -0.00070437      -0.01297216
B       -1.43022477      -0.01822012      -1.56483748      -0.00315896      -0.02894585      -0.01759247
B       -1.14005788       0.91050594      -3.04005273      -0.00023935       0.00073919      -0.00538485
Co       0.00000000       0.00000000       0.00000000      -0.07122888       0.01382713       0.13459793
H       -1.05370567      -2.14337576       1.05210077      -0.00217686      -0.01383473      -0.00267602
H        0.36332891      -2.61278204       3.40733621      -0.00347504       0.00352862       0.00669716
H        2.35614269      -0.26422850       3.67112799      -0.00699052       0.00211215       0.00131679
H        0.70214547       2.32901572       3.66328581      -0.00128975       0.00155305      -0.00319922
H       -0.30838023      -0.14101439       5.16981787      -0.00135235       0.00486466      -0.00273055
H       -2.41870220      -1.49098996       3.27507638       0.00837383       0.00672500      -0.00181000
H       -2.44170384       0.01963003       1.05891377      -0.02631520      -0.00344524      -0.01081804
H        1.80135923      -1.78365996       1.14237049       0.00724941      -0.01469962       0.02721334
H        2.13578720       1.41759295       1.23814762       0.00044052      -0.00583402       0.01224031
H       -0.88919847       2.43340186       1.08511314      -0.00686213      -0.01528724       0.00856739
H       -2.26833925       1.51162584       3.40967385       0.00245801       0.00044092       0.00311016
H        1.81276429       1.59311597      -1.04186852       0.01046952       0.00566033       0.00482554
H        2.71589207       0.30044724      -3.35642845      -0.00333769       0.00383264      -0.00141393
H        1.06201215      -2.29469309      -3.56673087       0.00287763       0.00524032      -0.00185791
H       -1.90292716      -1.47961064      -3.65348624       0.00206538      -0.00248811      -0.00130309
H        0.18397462       0.17768526      -5.15450599       0.00151888      -0.00039934       0.00153742
H        0.80253196       2.64259319      -3.30768272      -0.00137124      -0.00980410       0.00106562
H       -0.66756111       2.25797576      -1.10755432      -0.00530988       0.02412483       0.00689054
H        2.28825997      -1.24774438      -1.02911945       0.01847944      -0.00286412      -0.02607970
H       -0.65420483      -2.51595739      -1.16379404       0.01105098      -0.00245506      -0.01833132
H       -2.53407126       0.07608977      -1.13326602       0.01361135       0.00749450      -0.01703153
H       -1.99419769       1.61447674      -3.45995645      -0.00162456      -0.00191165      -0.01024533
