45
Properties=species:S:1:pos:R:3:forces:R:3 charge=-1 spin=1 energy=-54314.410260217366 free_energy=-54314.410260217366 stress="1.4326871633529663 0.08410372585058212 0.25933027267456055 0.08410372585058212 0.5004143714904785 -0.32960045337677 0.25933027267456055 -0.32960045337677 1.6239244937896729" pbc="F F F"
C        0.85739538       1.15228953       1.55400000      -0.05655723      -0.19801393       0.04039156
B        0.10205211       1.53286731       3.02037365      -0.00275841      -0.00094851      -0.01213875
B       -1.27086182       0.41869822       3.10602068       0.00232938      -0.00276660      -0.01342361
B       -0.62488495      -1.22870793       3.08412726       0.00423742      -0.00336288      -0.02503759
B        0.23920352       0.05345909       3.98383468      -0.00169231      -0.00012551      -0.00737526
B        1.59451680       0.58749030       2.96794506       0.00295485       0.00180732       0.00254811
C        1.45792959      -0.32448624       1.56400000      -0.55099392       0.31385586      -0.30351517
B       -0.84296733       1.16693690       1.55907528       0.00381568       0.00767385      -0.01366260
B       -1.32786962      -0.54795047       1.58265444       0.00303852      -0.00825344      -0.00934177
B        0.20399784      -1.46664323       1.51182971      -0.00158940      -0.01167297      -0.00574642
B        1.13195521      -1.12221996       3.00768572       0.00380923      -0.00093282      -0.00470796
C        1.14300000       0.92400000      -1.55300000      -0.45106685      -0.24160326       0.06039779
B        1.62283624       0.18092832      -2.99023884      -0.00491784      -0.00217669       0.01182370
B        0.66601646      -1.30607074      -3.06081920      -0.00795255       0.00358057       0.01203175
B       -1.04414550      -0.85185525      -3.09000031      -0.00611890       0.00267258       0.02337822
B        0.15374642       0.13547380      -3.97812691      -0.00469973       0.00355267       0.00716559
B        0.51365409       1.55727109      -2.97781111      -0.00005422       0.00547611      -0.00032858
C       -0.40000000       1.32300000      -1.56800000       0.20326088       0.01742163       0.16756569
B        1.32283185      -0.76121738      -1.50934968       0.00594945       0.00187317       0.01211418
B       -0.32401517      -1.44185631      -1.55958978      -0.00921456      -0.00084156       0.01069238
B       -1.41729713      -0.03335775      -1.54030039      -0.01319479      -0.00144796      -0.00017487
B       -1.13121474       0.90620845      -3.03557794      -0.00386729       0.00580066       0.00546661
Co       0.00000000       0.00000000       0.00000000       0.88429409       0.04265254       0.05038564
H        1.45539276       1.91695082       1.08355246      -0.00606183       0.01777570       0.00511357
H        0.15914117       2.64720296       3.41785868       0.00311139      -0.00550857      -0.00692995
H       -2.26388889       0.72356628       3.67673104       0.00470987      -0.00257947      -0.01082723
H       -1.14153451      -2.13693395       3.64403788       0.00387269       0.01319733      -0.01421264
H        0.32716471       0.07552011       5.16637274      -0.00319246       0.00408103      -0.00473090
H        2.65687587       1.00348610       3.27874019       0.00575818       0.00342697       0.00104634
H        2.39504285      -0.48492251       1.05879194      -0.00159498      -0.00188555      -0.00353599
H       -1.42534371       2.10608235       1.11910614      -0.01698068       0.00142406      -0.01915291
H       -2.38780490      -0.96532831       1.25269064       0.01101341      -0.00871320      -0.03729450
H        0.39563208      -2.55391887       1.08801519       0.03189477       0.00504343      -0.03705744
H        1.91776047      -1.91748272       3.39526238       0.00047781      -0.00011177       0.00882559
H        1.81909039       1.61017157      -1.06917850       0.01967137      -0.00540707      -0.00363931
H        2.73294925       0.34849906      -3.36855472      -0.01273372       0.00571049       0.00173781
H        1.09485652      -2.27318323      -3.59549358      -0.00795660       0.01141765       0.00205830
H       -1.87292037      -1.47826792      -3.66056689       0.00651454       0.01036035       0.01040157
H        0.18922851       0.20491237      -5.16151251      -0.00216640       0.00543590       0.00435185
H        0.79743766       2.65934330      -3.29848224      -0.00142305       0.00999414       0.00318482
H       -0.67573891       2.25598013      -1.10342991      -0.00461664      -0.00402837       0.00158637
H        2.30754053      -1.23488513      -1.04166265      -0.00423945      -0.03107888       0.01978604
H       -0.61803507      -2.53699274      -1.21508620      -0.01915976       0.00793675       0.04054516
H       -2.52735707       0.05146801      -1.13971878      -0.00110596       0.02566355       0.03179493
H       -1.99392314       1.60084711      -3.45148208      -0.00480411       0.00362540      -0.00156029
