45
Properties=species:S:1:pos:R:3:forces:R:3 charge=-1 spin=1 energy=-242.2318115234375 free_energy=-242.2318115234375 stress="-8.544274265886997e-08 3.239470913740661e-08 3.913272195177342e-08 3.239470913740661e-08 -5.448999829127388e-08 1.992332343547787e-08 3.913272195177342e-08 1.992332343547787e-08 -2.0054179117323656e-07" pbc="F F F"
C       -1.14627575       0.86541892       1.55400000      -0.25494456       0.09292886       0.21651204
B       -1.52251691       0.10718358       3.01922246      -0.00026225      -0.00086666       0.00129687
B       -0.42139274      -1.27027592       3.06737243       0.00704843      -0.00175726       0.00036769
B        1.24277107      -0.62150865       3.05983754      -0.00102690       0.00112353      -0.00238635
B       -0.04758133       0.22858208       3.96838205       0.00405912       0.00150745       0.00008598
B       -0.57079588       1.57527490       3.02069004       0.00310173       0.00008388       0.00348493
C        0.33465652       1.45562873       1.56400000       0.06870209       0.00862989       0.16001776
B       -1.17053223      -0.81760362       1.51330223       0.00041988       0.00389057      -0.00341365
B        0.54651864      -1.31171975       1.56540639       0.00212112      -0.00238851       0.00859277
B        1.48132304       0.22986903       1.52522223       0.00378686      -0.00349183       0.00519575
B        1.12629569       1.13899875       3.01704492      -0.00034469      -0.00120934       0.00144545
C        1.14300000       0.92400000      -1.55300000       0.14734872      -0.00823709      -0.16708063
B        1.61518205       0.17162867      -2.98764485       0.00209770      -0.00003246       0.00127709
B        0.66795529      -1.31658314      -3.01132885      -0.00502053      -0.00434181       0.00159444
B       -1.05698904      -0.85822738      -3.05320705      -0.00074704       0.00137164       0.00412691
B        0.14843827       0.11220311      -3.95546017      -0.00292931       0.00183674      -0.00073587
B        0.51023452       1.52597946      -3.03160251      -0.00405689      -0.00063336      -0.00223292
C       -0.40000000       1.32300000      -1.56800000      -0.16799173       0.21708322      -0.27924740
B        1.33179111      -0.74385965      -1.45656861      -0.00078011       0.00284781       0.00431792
B       -0.31968932      -1.43101939      -1.52490898      -0.00154697      -0.00252256      -0.00587806
B       -1.42815062      -0.01461278      -1.54384080      -0.00428119      -0.00350268      -0.00778231
B       -1.13061666       0.90561428      -3.03681625       0.00258292       0.00095551       0.00212849
Co       0.00000000       0.00000000       0.00000000       0.19512141      -0.29061377       0.05790382
H       -1.93847631       1.43912357       1.06198231      -0.00098871      -0.00157253      -0.00255846
H       -2.64454509       0.13455722       3.41978943      -0.00247821       0.00038888      -0.00023206
H       -0.71147257      -2.28272941       3.62963079      -0.00122761       0.00105001       0.00022636
H        2.14187315      -1.17103113       3.62080269      -0.00411922       0.00277550      -0.00202585
H       -0.05126283       0.24540809       5.15799770      -0.00035341       0.00077470      -0.00107332
H       -0.98970433       2.63910866       3.34047937      -0.00014891      -0.00010487      -0.00053042
H        0.52014245       2.41634862       1.07283753      -0.00205012      -0.00231081       0.00165388
H       -2.12276642      -1.38991461       1.07152893       0.00282632      -0.00357594      -0.00191741
H        0.95821545      -2.36775200       1.18306879       0.00731835       0.00247703       0.00343352
H        2.55396439       0.43011707       1.03810728      -0.00181790       0.00029847      -0.00661657
H        1.93326656       1.91454560       3.42669823      -0.00069663      -0.00101116      -0.00170827
H        1.85651306       1.58827378      -1.05652667       0.00052212      -0.00121789       0.00256161
H        2.73292485       0.30479043      -3.37837200       0.00392690      -0.00077108       0.00097749
H        1.07797171      -2.30391582      -3.54244959       0.00314096      -0.00146635       0.00143340
H       -1.87694404      -1.51444478      -3.62073910       0.00399479       0.00135286       0.00183266
H        0.16857113       0.10657394      -5.14503543       0.00198111      -0.00142261      -0.00060110
H        0.80480611       2.62557653      -3.36900293       0.00092063      -0.00215027      -0.00042960
H       -0.70000129       2.27367526      -1.11364789       0.00286558      -0.00367672      -0.00365844
H        2.32692681      -1.20058702      -0.97974451      -0.00364309      -0.00257409       0.00745727
H       -0.60860106      -2.51818014      -1.11863162      -0.00704131       0.00076983      -0.00358457
H       -2.52875828       0.07527952      -1.08428768       0.00198524       0.00244953       0.00552104
H       -2.00676479       1.58915477      -3.46822904       0.00262536      -0.00314435       0.00024810
