45
Properties=species:S:1:pos:R:3:forces:R:3 charge=-1 spin=1 energy=-54314.467755334554 free_energy=-54314.467755334554 stress="0.910879909992218 0.2523987293243408 -0.219956174492836 0.2523987293243408 1.1444270610809326 -1.2352919578552246 -0.219956174492836 -1.2352919578552246 1.5322872400283813" pbc="F F F"
C        1.29253919      -0.62629103       1.55400000      -0.27526009       0.10723942       0.06239753
B        1.51648513       0.19083414       3.02208595      -0.00156925      -0.00070062      -0.00360824
B        0.15793446       1.32352760       3.11779545      -0.00404369      -0.00099783      -0.00070615
B       -1.33522503       0.37218938       3.09777516      -0.00418616      -0.00359511      -0.01412935
B        0.09470926      -0.23016173       3.98956203      -0.00546177      -0.00267964      -0.00675583
B        0.87877540      -1.45495062       2.96604437      -0.00500646       0.00386967       0.00398404
C       -0.04554994      -1.49290830       1.56400000       0.12855385       0.50816047      -0.44077155
B        0.97112104       1.04369372       1.56798554       0.03184103       0.00036050      -0.00559908
B       -0.80197271       1.19068955       1.60509778      -0.00024999      -0.00795473       0.00710734
B       -1.41121588      -0.48589349       1.52526872      -0.00628571      -0.02106845       0.01644398
B       -0.88862988      -1.33204279       3.01312179      -0.00471201       0.00484848      -0.02169178
C        1.14300000       0.92400000      -1.55300000      -0.40398696      -0.31357026       0.19155262
B        1.61918557       0.16546425      -2.98499687      -0.00235004       0.00587840      -0.00003299
B        0.65544211      -1.31765010      -3.05981086      -0.00547859       0.00263400      -0.00729504
B       -1.05335079      -0.85422483      -3.09718971      -0.00520847       0.00384274       0.00706690
B        0.15422367       0.12482766      -3.97942608      -0.00281583       0.00810402       0.00212977
B        0.51836825       1.54863837      -2.97816345      -0.00187261      -0.00106936      -0.00382056
C       -0.40000000       1.32300000      -1.56800000       0.10813305       0.02553036       0.24486451
B        1.30924150      -0.76426205      -1.50664716       0.03070216       0.00867506       0.00336987
B       -0.33787354      -1.43724075      -1.57239278      -0.00050608       0.01238603      -0.01391442
B       -1.42832478      -0.02578290      -1.55744581      -0.01227787       0.01654085      -0.02364730
B       -1.12900134       0.90774529      -3.04411196      -0.00384647      -0.00109482       0.02181020
Co       0.00000000       0.00000000       0.00000000       0.42481643      -0.39494354       0.03656140
H        2.14801086      -1.05763320       1.06567159       0.00687280       0.00091892       0.00284229
H        2.61970172       0.35242029       3.41941425      -0.00011168      -0.00105999      -0.00383006
H        0.27215296       2.35692825       3.68676779      -0.00019616      -0.00001461       0.00065246
H       -2.32363408       0.70278478       3.66285302       0.00453332      -0.00202032      -0.00778234
H        0.13882411      -0.31432579       5.17193302      -0.00067707       0.00145721      -0.00613067
H        1.48963515      -2.41791673       3.27564463       0.00119350       0.00261513      -0.00173841
H       -0.02309712      -2.43882691       1.04910470       0.00284721       0.02016989       0.00439928
H        1.77877034       1.80384832       1.13400278      -0.01620454       0.00760301       0.01559376
H       -1.41391062       2.14552929       1.24470709      -0.00995533       0.01590846      -0.01974113
H       -2.43953106      -0.88745698       1.09939213       0.01896873      -0.00668942      -0.03614987
H       -1.51354222      -2.25807539       3.40389947       0.00488600       0.00897067      -0.00478138
H        1.81503343       1.59682959      -1.05005826       0.00014715      -0.00411739      -0.00363392
H        2.72928142       0.32325343      -3.36400516      -0.00076382       0.00752213       0.00176611
H        1.08412556      -2.28835217      -3.58773815       0.00159508       0.00727500      -0.00952821
H       -1.88467259      -1.47757514      -3.66778203       0.00404596       0.00746652      -0.00169944
H        0.19549239       0.19197233      -5.16270882       0.00082977       0.00854574       0.00125087
H        0.80616392       2.64683771      -3.30488957       0.00163837       0.00412437       0.00576462
H       -0.67223887       2.25507495      -1.09927646       0.00637996      -0.01517536      -0.00297571
H        2.29028792      -1.24645116      -1.03528460      -0.01399566      -0.01691464      -0.03338761
H       -0.64061625      -2.52286921      -1.19111429      -0.01055237      -0.01690339       0.00995168
H       -2.53833643       0.06937343      -1.16002212       0.01332628       0.01184087       0.03075431
H       -1.98579951       1.60649229      -3.46573591       0.00626380      -0.00191847       0.00308726
