45
Properties=species:S:1:pos:R:3:forces:R:3 charge=-1 spin=1 energy=-242.28652954101562 free_energy=-242.28652954101562 stress="-4.697324840208239e-08 1.0130417393838798e-08 -5.1654435395676046e-08 1.0130417393838798e-08 -9.598269201660514e-08 5.205205866332108e-08 -5.1654435395676046e-08 5.205205866332108e-08 -2.1050938414646225e-07" pbc="F F F"
C        1.08483157       0.94129616       1.55400000       0.09650081       0.16507566       0.30785978
B        0.42905203       1.45711158       3.02696230       0.00446074      -0.00020738      -0.00762189
B       -1.15020101       0.66943676       3.07966307      -0.00179249       0.00232033      -0.00275001
B       -0.86522489      -1.09095619       3.05638965       0.00070398      -0.00372359      -0.00440530
B        0.24097058      -0.02153718       3.97235187       0.00032210      -0.00084406      -0.00012324
B        1.66499201       0.21356938       3.02668287       0.00012383      -0.00117214      -0.00690020
C        1.35424075      -0.62998570       1.56400000       0.01703537      -0.08882485       0.11273602
B       -0.55472189       1.32504232       1.54616762       0.00666086       0.00131434      -0.00445251
B       -1.40187898      -0.25491017       1.57407752       0.00476605       0.00061304      -0.00502536
B       -0.09448995      -1.47426318       1.48096722      -0.00048082       0.00575736       0.00040921
B        0.88069641      -1.34792815       3.01490245       0.00275478       0.00077707      -0.00607998
C        1.14300000       0.92400000      -1.55300000       0.08295463      -0.01135364      -0.22562438
B        1.61477953       0.19642694      -3.00087307      -0.00151417       0.00524398       0.00659487
B        0.67099377      -1.29398672      -3.04868545       0.00135101       0.00005470       0.00168183
B       -1.05302934      -0.83768916      -3.07607214      -0.00336687      -0.00011560       0.00398414
B        0.14199801       0.14942711      -3.97096472      -0.00038514       0.00011653      -0.00069742
B        0.50161221       1.54945396      -3.02865344       0.00112869       0.00049468       0.00660451
C       -0.40000000       1.32300000      -1.56800000      -0.16948187       0.30226558      -0.24746145
B        1.34357345      -0.74151625      -1.50849868       0.00225037       0.00476608       0.00152497
B       -0.30850536      -1.43394006      -1.56740164       0.00151414       0.00655088       0.00300030
B       -1.40493051      -0.02517384      -1.51936000       0.00367272      -0.00175098       0.00109063
B       -1.13225279       0.92342656      -3.04305165      -0.00150476       0.00255800       0.00559870
Co       0.00000000       0.00000000       0.00000000      -0.01537360      -0.38061315       0.05978005
H        1.82610030       1.59307690       1.08213871      -0.00047973      -0.00023921       0.00194769
H        0.69972698       2.54355558       3.43492086      -0.00136953       0.00076690       0.00219865
H       -2.07233132       1.15987502       3.65633337      -0.00738038       0.00276435       0.00145984
H       -1.58509161      -1.86861674       3.60577183      -0.00415905      -0.00167751       0.00033571
H        0.26134636      -0.02665654       5.16180577      -0.00239653      -0.00042194       0.00674775
H        2.79396776       0.39862506       3.34366921      -0.00236514      -0.00027246       0.00232506
H        2.24302018      -1.01344162       1.05791306      -0.00175597       0.00128156       0.00277745
H       -0.93482274       2.36744934       1.09720119       0.00260925      -0.00079378       0.00002062
H       -2.51588528      -0.43586995       1.17980499      -0.00207437       0.00208715      -0.00470425
H       -0.11735834      -2.58271880       1.03799670       0.00043486      -0.00043599      -0.00229551
H        1.46063201      -2.31326730       3.40491082      -0.00164459       0.00036903       0.00144471
H        1.85278211       1.59942739      -1.06684399      -0.00053763      -0.00071005      -0.00243875
H        2.73053460       0.34494040      -3.39166610      -0.00213075      -0.00028457      -0.00326711
H        1.08122175      -2.26846119      -3.60107497       0.00003256      -0.00533281      -0.00301214
H       -1.88062156      -1.48389988      -3.64359251      -0.00326335      -0.00325997      -0.00027600
H        0.16499973       0.15838863      -5.16036969      -0.00277072      -0.00025543      -0.00608881
H        0.79573286       2.65412937      -3.34878752      -0.00208423      -0.00106573      -0.00162813
H       -0.70578876       2.25708230      -1.08748663       0.00072414      -0.00090354      -0.00148124
H        2.33188687      -1.22059480      -1.03737323      -0.00064620       0.00212613      -0.00290678
H       -0.60122284      -2.52235783      -1.17253911       0.00163975      -0.00217952       0.00793631
H       -2.51881559       0.06427618      -1.09513145      -0.00023443      -0.00051041       0.00134143
H       -2.02075264       1.60273143      -3.45474246      -0.00244847      -0.00035530      -0.00015973
