45
Properties=species:S:1:pos:R:3:forces:R:3 charge=-1 spin=1 energy=-242.23214721679688 free_energy=-242.23214721679688 stress="6.328645607567296e-09 -1.2477491040385758e-08 -4.303768008639963e-09 -1.2477491040385758e-08 8.646873794759813e-08 2.2676243105479443e-08 -4.303768008639963e-09 2.2676243105479443e-08 6.799063356766055e-08" pbc="F F F"
C       -0.93393662       1.14297996       1.59133557       0.01360127      -0.00051546      -0.01726800
B       -1.47020772       0.51279452       3.04625338       0.00632795      -0.00549292       0.00496587
B       -0.72034301      -1.08505348       3.12134988      -0.00153090      -0.00207230      -0.01072371
B        1.04489167      -0.85070848       3.12046688      -0.00229974      -0.01036945       0.00082619
B       -0.00755955       0.30106169       4.00492664      -0.00789251      -0.01259379       0.00399784
B       -0.19301609       1.71484503       3.02718760      -0.01080254       0.00027512      -0.00812753
C        0.66365780       1.35118145       1.58888818      -0.03245363       0.02957696      -0.00521597
B       -1.32293391      -0.48889095       1.54206038      -0.01198417      -0.00743626      -0.00062457
B        0.22549156      -1.38753651       1.63600000      -0.06646352       0.07463908      -0.17348433
B        1.47076009      -0.11314749       1.55523402       0.02018273      -0.01011285      -0.01118401
B        1.34965324       0.88500788       3.04238805       0.00886859      -0.00425982       0.01558969
C        1.14753610       0.95708862      -1.59174007      -0.03240615       0.02190208       0.02949524
B        1.62261848       0.24569928      -3.02829271      -0.00939965      -0.00818532      -0.00903212
B        0.69491111      -1.25455960      -3.09234668       0.00229608      -0.00042848       0.01393274
B       -1.03042345      -0.81840288      -3.11443108       0.00161000      -0.01199636      -0.00282805
B        0.15573149       0.19335132      -4.00243514       0.00311133      -0.01446932      -0.00344225
B        0.49880090       1.58990516      -3.04165400       0.00124901      -0.00260352      -0.00144006
C       -0.41759568       1.35541965      -1.61172387      -0.01237166       0.00653234      -0.00521982
B        1.33735461      -0.70236893      -1.50622616       0.01221412      -0.01748651       0.01250395
B       -0.27500000      -1.43300000      -1.61500000      -0.05409779       0.18512845       0.19804005
B       -1.39382259      -0.01569249      -1.57320041      -0.00842986       0.00529227       0.01173528
B       -1.13490298       0.94534705      -3.06607831      -0.01106013      -0.00261407      -0.01377201
Co       0.00000000       0.00000000       0.00000000       0.18942584      -0.26158988      -0.03046128
H       -1.55912792       1.88126245       1.07998862       0.00470594      -0.00581004       0.01242746
H       -2.55502103       0.80816501       3.44092163      -0.01099277      -0.00940403       0.01134749
H       -1.25195177      -1.98328342       3.70204317       0.00329469       0.00099464      -0.01182465
H        1.79278610      -1.57709680       3.70229824      -0.00238776      -0.00360855      -0.00204235
H       -0.01530526       0.35197936       5.19358103       0.00428347      -0.01248555       0.00448322
H       -0.34199826       2.85565307       3.32098830      -0.00234736      -0.00489855       0.01796387
H        1.07248142       2.22993844       1.08101283       0.00413606      -0.00664268       0.00497770
H       -2.38244056      -0.84575753       1.11639088       0.01286491       0.01226822      -0.00962638
H        0.37207750      -2.50986641       1.24445716      -0.01085163       0.03535540       0.01390922
H        2.58169866      -0.18690430       1.12193350      -0.00985614       0.01227408      -0.02245493
H        2.32176025       1.44963495       3.43787873       0.00583419       0.00590201       0.01191834
H        1.84786140       1.62346748      -1.08116319       0.00647859       0.00457873       0.00014234
H        2.73900605       0.40104176      -3.41397444       0.01429638      -0.00475190      -0.00989668
H        1.12639791      -2.21336749      -3.65933282       0.00001317       0.00324041       0.01588569
H       -1.85077973      -1.46144567      -3.69650500       0.00172028      -0.00857802       0.00166885
H        0.18023238       0.22828936      -5.19154643      -0.00397654      -0.01559939      -0.00266479
H        0.78786243       2.69931383      -3.35001174      -0.00522074       0.00099704      -0.02345280
H       -0.72867185       2.28600910      -1.12609336      -0.00053461      -0.01014327      -0.01926690
H        2.34832848      -1.17224253      -1.07522353      -0.02260319       0.02526240       0.03122269
H       -0.55877289      -2.51956163      -1.20091528       0.01283208       0.03278339      -0.00792926
H       -2.50780723       0.04168717      -1.14173033       0.00552808       0.00079452      -0.00113949
H       -2.02780712       1.61637425      -3.48261223      -0.00491191      -0.00364882      -0.01391174
