45
Properties=species:S:1:pos:R:3:forces:R:3 charge=-1 spin=1 energy=-54314.52829648751 free_energy=-54314.52829648751 stress="0.926347553730011 -0.14812380075454712 0.23169676959514618 -0.14812380075454712 1.2152304649353027 -1.3203320503234863 0.23169676959514618 -1.3203320503234863 1.8346506357192993" pbc="F F F"
C        1.43608271       0.02375840       1.55400000      -0.17867725      -0.08543539      -0.04606879
B        1.26823639       0.86161452       3.01456368      -0.00161910       0.00431123      -0.00214287
B       -0.45131383       1.27968169       3.09166697       0.00039689       0.00004589      -0.00275455
B       -1.37374830      -0.23457838       3.06452350       0.00130190       0.00020260       0.00012455
B        0.16589710      -0.14219123       3.97211410       0.00440768       0.00008928      -0.00195496
B        1.42314012      -0.89870818       2.96815708      -0.00014165      -0.00112133      -0.00033316
C        0.63246160      -1.35308622       1.56400000      -0.33734506       0.63673151      -0.51226264
B        0.41474747       1.37919743       1.54886757       0.00395682      -0.00313735      -0.00319203
B       -1.24481939       0.73417823       1.57445376      -0.00063077      -0.00197890      -0.00394804
B       -1.05136733      -1.04430928       1.49913402      -0.00204372       0.00548571      -0.00315260
B       -0.22000824      -1.56925898       2.99498113      -0.00004741      -0.00027120       0.00037665
C        1.14300000       0.92400000      -1.55300000      -0.39127314      -0.16767500       0.24448928
B        1.62605197       0.17859881      -2.98553543       0.00150733      -0.00400176       0.00152243
B        0.67629374      -1.31309407      -3.05815979      -0.00035623      -0.00023651       0.00266785
B       -1.03947605      -0.86796750      -3.08485994       0.00030848       0.00055027       0.00025640
B        0.15420661       0.12603799      -3.97252630       0.00356965       0.00240744       0.00194376
B        0.51093854       1.55180258      -2.97478129      -0.00137454       0.00043789       0.00134198
C       -0.40000000       1.32300000      -1.56800000       0.03330763      -0.13035314       0.33477876
B        1.32536697      -0.75559381      -1.50415981      -0.00006671       0.00604903       0.00317147
B       -0.31133199      -1.44851275      -1.56471768      -0.00326088       0.00081982       0.00280934
B       -1.41842785      -0.04752360      -1.54173545       0.00253333      -0.00422190       0.00488765
B       -1.13395167       0.89405427      -3.02899533      -0.00017057      -0.00080655      -0.00145123
Co       0.00000000       0.00000000       0.00000000       0.85041332      -0.25900730      -0.01685347
H        2.39721032       0.01125486       1.06571114       0.00885387      -0.00220602      -0.00350858
H        2.18574959       1.49171803       3.41861859      -0.00059726      -0.00065506      -0.00030050
H       -0.81191991       2.25705077       3.65694192       0.00068450      -0.00052286       0.00032224
H       -2.41023657      -0.37347455       3.62210246       0.00069875      -0.00004620      -0.00033148
H        0.22960661      -0.19486122       5.15520691      -0.00007655       0.00086035      -0.00186533
H        2.39429925      -1.48757702       3.29542716      -0.00060052      -0.00120015       0.00032757
H        1.07454380      -2.18712886       1.04510283      -0.00118796       0.00000773       0.00315956
H        0.80452522       2.40823851       1.08901468      -0.00152389       0.00066915       0.00074479
H       -2.20635276       1.32504255       1.19912663       0.00441203      -0.00448083       0.00080831
H       -1.79268384      -1.85055671       1.04946137       0.00207203       0.00054890       0.00291710
H       -0.37822676      -2.67230390       3.39271930      -0.00050980      -0.00122540       0.00279180
H        1.80722267       1.60572704      -1.04714172       0.00448316       0.00622975       0.00169485
H        2.73287422       0.35389781      -3.36808387      -0.00057837      -0.00068009      -0.00025115
H        1.11015132      -2.27694697      -3.59441209       0.00040224       0.00022899      -0.00039492
H       -1.86546989      -1.49545423      -3.65788277       0.00039794       0.00001670       0.00007067
H        0.18885435       0.19694000      -5.15584687       0.00078106      -0.00128560       0.00191467
H        0.78977902       2.65275913      -3.30175740      -0.00157905      -0.00055939      -0.00085836
H       -0.67429174       2.25011399      -1.09109634      -0.00020402      -0.00023389      -0.00287769
H        2.30198123      -1.22787940      -1.00954655      -0.00052152      -0.00170610      -0.00043337
H       -0.59264203      -2.53679752      -1.17691975      -0.00026479       0.00682534      -0.00183133
H       -2.52205906       0.03055393      -1.12038368       0.00107926       0.00106963      -0.00290790
H       -1.99802967       1.58411879      -3.44963136      -0.00091694      -0.00053929      -0.00344661
