45
Properties=species:S:1:pos:R:3:forces:R:3 charge=-1 spin=1 energy=-242.2817840576172 free_energy=-242.2817840576172 stress="-2.9743441487539712e-08 -4.523443841719654e-09 -9.523640542852263e-09 -4.523443841719654e-09 4.114474450034322e-08 6.177106115501374e-08 -9.523640542852263e-09 6.177106115501374e-08 7.339392027461145e-08" pbc="F F F"
C        0.53490899      -1.38203549       1.58883802       0.02328405       0.00672308       0.00669545
B        1.24237754      -0.94495004       3.05186650       0.00358281       0.00352046      -0.00721752
B        1.02148366       0.81277328       3.11009057       0.00530751       0.00639786      -0.00150493
B       -0.73186299       1.13378799       3.10643089      -0.00877339       0.00019839      -0.00029282
B       -0.08327498      -0.28270962       4.00246263      -0.00801885       0.00124978      -0.00113678
B       -0.33929846      -1.69533242       3.03753067      -0.00354901       0.00148618       0.00847638
C       -1.03748493      -1.08976630       1.58374523      -0.02417879      -0.00323153      -0.01700974
B        1.41718921       0.04769413       1.55438790       0.00687882       0.00227721       0.02821249
B        0.21431714       1.38930636       1.63600000       0.05938760      -0.08571959      -0.09182490
B       -1.35667415       0.55672434       1.53547855       0.01442739      -0.01811921      -0.01559354
B       -1.55276664      -0.43068074       3.04117279      -0.00483879      -0.00098813       0.00477824
C        1.13165763       0.97246252      -1.58315658       0.01150014      -0.00717717       0.00429994
B        1.62361705       0.25345223      -3.02307946       0.00180415      -0.00422886       0.00832728
B        0.70275175      -1.25607221      -3.07270783       0.00619029      -0.00748572       0.00652225
B       -1.02653889      -0.82774368      -3.10577705      -0.00373574      -0.00161834      -0.00124015
B        0.16128934       0.18198008      -4.00054066      -0.00392237      -0.00022499       0.00127660
B        0.49802631       1.59127609      -3.05599404      -0.00769900       0.00004815      -0.01102088
C       -0.42227602       1.36013908      -1.61841438      -0.02542284       0.01076478       0.01455364
B        1.33907376      -0.68826779      -1.50087560       0.00644699      -0.00392893      -0.03103644
B       -0.27500000      -1.43300000      -1.61500000      -0.04457366       0.16469920       0.07988958
B       -1.39488471      -0.01415026      -1.57313083       0.01350763       0.00909992       0.01399395
B       -1.13388077       0.94160169      -3.07871444      -0.00267773      -0.00315587      -0.01029541
Co       0.00000000       0.00000000       0.00000000       0.01495293      -0.08359735       0.01094695
H        0.89901648      -2.26730223       1.05881248      -0.00098728       0.00803141       0.02298942
H        2.19023374      -1.54971418       3.44928252      -0.00495268      -0.00286355      -0.00001954
H        1.80621290       1.50725592       3.68271226      -0.00710000       0.00117394       0.00141313
H       -1.21969258       2.05862908       3.68350171      -0.00216294      -0.00476685      -0.00652027
H       -0.09079351      -0.31319537       5.19316303      -0.00311539       0.00343494      -0.00671908
H       -0.54803525      -2.82321771       3.34468936      -0.00401182      -0.00710231      -0.00527062
H       -1.69140711      -1.78982298       1.05590354       0.00821997      -0.00716506      -0.00273767
H        2.53538517       0.04838931       1.13550734       0.01672452       0.00330671      -0.03311443
H        0.42662059       2.49551391       1.23132616      -0.00260933       0.01608146      -0.00622451
H       -2.38586193       0.94959046       1.07447451      -0.01798434      -0.00330647       0.00912044
H       -2.65368540      -0.66447233       3.43521770      -0.00388953      -0.00264182      -0.00703250
H        1.81989667       1.63775990      -1.05275104      -0.01020549      -0.00264063      -0.01886788
H        2.74394786       0.40061842      -3.40371754       0.00010315       0.01210716       0.00846344
H        1.14113014      -2.21897219      -3.62645083       0.00174277       0.00274037       0.00444896
H       -1.84440800      -1.47825044      -3.68380015       0.00824630      -0.00028688       0.00257414
H        0.18202663       0.19356864      -5.19131662       0.00459184      -0.00578649       0.00629638
H        0.78433829       2.69740721      -3.37940121      -0.00634132       0.00726134       0.00530991
H       -0.73907738       2.27955022      -1.11685202       0.00176070       0.00308947      -0.00635915
H        2.34900884      -1.13846824      -1.05106283       0.01166299      -0.00076537       0.03975611
H       -0.55539916      -2.51327306      -1.18408842      -0.00572495      -0.00993256       0.00925200
H       -2.50516622       0.05430177      -1.13738560      -0.01314195       0.00622142      -0.01432858
H       -2.03141641       1.60317675      -3.50165690      -0.00070491      -0.00317919      -0.00222918
