45
Properties=species:S:1:pos:R:3:forces:R:3 charge=-1 spin=1 energy=-54314.348528878865 free_energy=-54314.348528878865 stress="1.3738210201263428 0.5205636024475098 0.2600127160549164 0.5205636024475098 0.35917139053344727 0.031113263219594955 0.2600127160549164 0.031113263219594955 0.0188108179718256" pbc="F F F"
C        0.01634865       1.43618617       1.55400000       0.29883265       0.01991559      -0.06166450
B       -0.81871761       1.30280444       3.01444729       0.00208462       0.01484601       0.00343351
B       -1.29580076      -0.39701175       3.08385166      -0.00984717      -0.00473406      -0.00020587
B        0.18277623      -1.36497720       3.06785218      -0.00018558      -0.00410245      -0.01363525
B        0.14326577       0.17097594       3.97494085       0.00242632       0.02917496       0.00895235
B        0.94675738       1.40101371       2.97202884      -0.01118716       0.00787983      -0.00215135
C        1.37021804       0.59443463       1.56400000      -0.67918652      -0.32915846      -0.14841384
B       -1.37409531       0.47257106       1.54023333      -0.00227822       0.00613198       0.00396598
B       -0.77735013      -1.20626463       1.55905967      -0.00901643       0.00254077       0.00832443
B        1.00474767      -1.07490579       1.51482742       0.00642382      -0.01032624      -0.00678003
B        1.55844725      -0.25911094       3.00637377      -0.00096730      -0.00764379      -0.01013895
C        1.14300000       0.92400000      -1.55300000      -0.51277524      -0.00997211       0.03518055
B        1.61140697       0.17911915      -2.99018113       0.00913530       0.00745581       0.00353665
B        0.66972296      -1.31598298      -3.03433924       0.00023304      -0.01029531       0.00089406
B       -1.04252925      -0.87876572      -3.05851106      -0.00377488      -0.00479174       0.01259502
B        0.13640316       0.11009214      -3.96470282       0.01407866       0.02092979      -0.00836482
B        0.49568253       1.54813680      -2.98291293       0.00552833      -0.00010441       0.00525978
C       -0.40000000       1.32300000      -1.56800000       0.04759296      -0.13104655       0.05499597
B        1.33991669      -0.75040856      -1.49300140       0.01180268       0.00628540      -0.00024718
B       -0.30287326      -1.44644445      -1.52235574       0.00531028      -0.00563202      -0.01053341
B       -1.41453740      -0.04924598      -1.52803159      -0.00787338      -0.00392932       0.00136607
B       -1.14371074       0.88337204      -3.02436284      -0.00489782      -0.00203449       0.00696697
Co       0.00000000       0.00000000       0.00000000       0.86445731       0.46007821       0.11518633
H        0.05860426       2.40935193       1.08619291      -0.00267875      -0.01724844       0.00773331
H       -1.42043095       2.24119366       3.41203267      -0.00196157       0.01227352       0.00441498
H       -2.28382643      -0.73267048       3.64283269      -0.01538637       0.01020444       0.01476249
H        0.28688919      -2.41149005       3.61332997      -0.00566646       0.00776783       0.01341446
H        0.19389634       0.23088151       5.15721297      -0.00236077       0.01040307       0.02215248
H        1.56481873       2.35781301       3.29271831      -0.00147499      -0.00459758      -0.00133502
H        2.23567500       1.00977790       1.07330917      -0.01730513      -0.01104154      -0.00104334
H       -2.38675919       0.91310026       1.10854731      -0.01016333       0.00355451      -0.00457155
H       -1.39854224      -2.15519374       1.21307893      -0.00195468       0.00116794       0.00896222
H        1.78738752      -1.85420994       1.09711365       0.01141140      -0.01493350      -0.00858546
H        2.65702895      -0.45767035       3.40013618      -0.00392221       0.00075121       0.00913562
H        1.81854563       1.61998025      -1.07907397      -0.01172058      -0.01590950      -0.00689045
H        2.71659126       0.34885387      -3.37867981       0.00591992       0.00694352      -0.00700865
H        1.09716723      -2.28619947      -3.56114900       0.01544706      -0.00389677      -0.01509331
H       -1.87352407      -1.51631083      -3.61195437       0.00655276      -0.00010943      -0.01052245
H        0.16302321       0.16626624      -5.14794200       0.00422883       0.00490470      -0.02182782
H        0.77221389       2.64969049      -3.31516102      -0.00403230      -0.00394877       0.00043744
H       -0.68527226       2.26138028      -1.11740826       0.00436395      -0.02058933      -0.00172720
H        2.33666061      -1.20312991      -1.04173477       0.01332312      -0.00946761       0.01096672
H       -0.58252198      -2.53778840      -1.15309159       0.00466704      -0.00205233      -0.00738518
H       -2.52157085       0.02977580      -1.12027591      -0.01201788      -0.00400281       0.00235759
H       -2.01629410       1.56726209      -3.43911197      -0.00118552      -0.00164057      -0.00686930
