45
Properties=species:S:1:pos:R:3:forces:R:3 charge=-1 spin=1 energy=-54314.50162221688 free_energy=-54314.50162221688 stress="0.9597473740577698 0.20015975832939148 -0.06417100876569748 0.20015975832939148 0.932349443435669 -1.4472473859786987 -0.06417100876569748 -1.4472473859786987 1.7079195976257324" pbc="F F F"
C        1.35760217      -0.46884362       1.55400000      -0.33455485       0.15271640       0.07858949
B        1.46801101       0.37513874       3.02106851      -0.00189524       0.00090645      -0.00121643
B       -0.02026553       1.33493497       3.10357796      -0.00077781       0.00218401      -0.00239575
B       -1.38939221       0.21027339       3.07323168      -0.00066819       0.00094601       0.00137690
B        0.09732633      -0.21212002       3.97833904      -0.00063933       0.00326767       0.00036476
B        1.03420219      -1.33506988       2.96807028       0.00042530       0.00103585      -0.00293076
C        0.13153675      -1.48779975       1.56400000       0.09838893       0.48250911      -0.58756047
B        0.83443780       1.15344707       1.56203331      -0.00098375       0.00164064      -0.00256121
B       -0.94668696       1.08631196       1.58550920       0.00203269      -0.00029896      -0.00295035
B       -1.34728638      -0.65475049       1.50421510       0.00055904       0.00484486      -0.00604275
B       -0.73797507      -1.42649493       2.99873649      -0.00208702       0.00008880       0.00036204
C        1.14300000       0.92400000      -1.55300000      -0.41429245      -0.35428557       0.15750010
B        1.61253121       0.17527968      -2.99179541      -0.00178838      -0.00124741       0.00084864
B        0.64178554      -1.30397396      -3.07497184      -0.00059199      -0.00255618       0.00264236
B       -1.06655676      -0.83756757      -3.10132622      -0.00032812      -0.00076749      -0.00146251
B        0.14220464       0.14651779      -3.98174667       0.00131470      -0.00346984       0.00000628
B        0.51556356       1.56051055      -2.97354047       0.00103817      -0.00092156       0.00327376
C       -0.40000000       1.32300000      -1.56800000       0.12612364       0.14356235       0.38880944
B        1.30262603      -0.76548382      -1.51912307       0.00010064      -0.00235925       0.00238685
B       -0.34618310      -1.43261362      -1.58219936       0.00145747       0.00090765       0.00231303
B       -1.43249749      -0.01937601      -1.55418168       0.00270116      -0.00256533       0.00681135
B       -1.13627557       0.92325866      -3.03642005      -0.00262412      -0.00131651      -0.00021662
Co       0.00000000       0.00000000       0.00000000       0.54511440      -0.41958091      -0.03952764
H        2.26073365      -0.79690239       1.06945381       0.00100970       0.00134242       0.00242799
H        2.53975188       0.66968811       3.42866784      -0.00195960       0.00033030      -0.00130046
H       -0.03608008       2.37480803       3.67197901      -0.00074567       0.00160341      -0.00125572
H       -2.41351147       0.41950094       3.63167524      -0.00346727       0.00217968      -0.00124725
H        0.14222558      -0.28709536       5.16100170      -0.00238948       0.00143493       0.00121554
H        1.75284667      -2.21701919       3.28767560      -0.00086883       0.00045290       0.00116906
H        0.26917562      -2.42229154       1.04586323      -0.00020902       0.00297491       0.00399849
H        1.53921312       2.01025715       1.12870637       0.00078167      -0.00042332       0.00064249
H       -1.66417040       1.95883805       1.20883620       0.00150084      -0.00109056      -0.00114599
H       -2.30636290      -1.17989746       1.05101022       0.00086579      -0.00117835       0.00138128
H       -1.24729650      -2.42038350       3.38893465      -0.00333397      -0.00274340       0.00047768
H        1.81491302       1.59518213      -1.04684472       0.00064591      -0.00174411      -0.00273998
H        2.72121861       0.33499650      -3.37497648      -0.00210754      -0.00168790       0.00133787
H        1.06649813      -2.26933601      -3.61570261      -0.00063780      -0.00170833       0.00170252
H       -1.89968117      -1.45248192      -3.67760944      -0.00261794      -0.00315530       0.00142557
H        0.18058211       0.22422954      -5.16444906      -0.00195252      -0.00240702      -0.00082767
H        0.80311635       2.66189481      -3.29038697      -0.00069684      -0.00115105      -0.00127130
H       -0.66883520       2.25117400      -1.08949194       0.00079320      -0.00330348      -0.00284588
H        2.27810863      -1.26429273      -1.05351362       0.00099779       0.00031660      -0.00051058
H       -0.64980862      -2.51796184      -1.19838167       0.00011841       0.00126372       0.00099511
H       -2.53383024       0.08121836      -1.13325661       0.00043995       0.00171516      -0.00154307
H       -1.99011715       1.63002675      -3.44950638      -0.00419185       0.00173808      -0.00050600
