45
Properties=species:S:1:pos:R:3:forces:R:3 charge=-1 spin=1 energy=-54314.51014615792 free_energy=-54314.51014615792 stress="0.9826424717903137 0.18926720321178436 -0.0326160304248333 0.18926720321178436 0.924134373664856 -1.4618860483169556 -0.0326160304248333 -1.4618860483169556 1.862907886505127" pbc="F F F"
C        1.37313756      -0.42117838       1.55400000      -0.33249709       0.14154013       0.07221443
B        1.45397147       0.42625317       3.02100902      -0.00120797       0.00135317      -0.00173676
B       -0.06682797       1.33360111       3.10334851      -0.00132022       0.00124330      -0.00165193
B       -1.39596474       0.16179000       3.07320156      -0.00085025       0.00144201      -0.00406475
B        0.10463851      -0.20834789       3.97832903      -0.00119337      -0.00042806      -0.00168592
B        1.08028920      -1.29813482       2.96780444      -0.00244092       0.00120699       0.00138691
C        0.18338009      -1.48230285       1.56400000       0.07876094       0.48860583      -0.59227598
B        0.79342937       1.18191430       1.56172686       0.00450807       0.00371036      -0.00279433
B       -0.98393097       1.05278853       1.58498884       0.00191496       0.00022952       0.00063863
B       -1.32369869      -0.70044906       1.50313540      -0.00130150      -0.00283991      -0.00075411
B       -0.68789403      -1.45137795       2.99864930      -0.00231681       0.00241543      -0.00383135
C        1.14300000       0.92400000      -1.55300000      -0.41101888      -0.35424262       0.16237415
B        1.61250086       0.17518589      -2.99176965      -0.00058354      -0.00219289       0.00195178
B        0.64181204      -1.30413627      -3.07472665      -0.00104142      -0.00202930       0.00132235
B       -1.06659825      -0.83767462      -3.10128275      -0.00098104      -0.00157152       0.00471419
B        0.14231699       0.14628012      -3.98170469      -0.00194030      -0.00004328       0.00170131
B        0.51571286       1.56051859      -2.97324252      -0.00244631      -0.00209520      -0.00149917
C       -0.40000000       1.32300000      -1.56800000       0.12390210       0.13938320       0.39270014
B        1.30238998      -0.76566684      -1.51892690       0.00599345      -0.00198531       0.00379520
B       -0.34609970      -1.43281093      -1.58173164       0.00146863       0.00141047      -0.00040869
B       -1.43214300      -0.02008023      -1.55294160      -0.00294138       0.00151469       0.00074198
B       -1.13649260       0.92314568      -3.03632578      -0.00081052      -0.00289034       0.00400137
Co       0.00000000       0.00000000       0.00000000       0.56842387      -0.41158509      -0.03960291
H        2.28749669      -0.71765698       1.06931386      -0.00541889       0.00190364       0.00292436
H        2.51477503       0.75792325       3.42861712      -0.00020852       0.00066986      -0.00067946
H       -0.11899915       2.37223520       3.67186813      -0.00051996       0.00170553      -0.00202185
H       -2.42693391       0.33516314       3.63154004      -0.00099881       0.00185382      -0.00275044
H        0.15197781      -0.28185562       5.16107804      -0.00194633       0.00184114      -0.00107898
H        1.82909310      -2.15451731       3.28782720      -0.00082915       0.00039893       0.00060170
H        0.35354398      -2.41139055       1.04587989      -0.00004207      -0.00024840      -0.00076829
H        1.46819716       2.06277704       1.12812408      -0.00170502      -0.00252041      -0.00461895
H       -1.73122427       1.89947452       1.20853088      -0.00070040       0.00437433      -0.00572205
H       -2.26390117      -1.25956440       1.05056273       0.00062218       0.00377070      -0.00437502
H       -1.16232265      -2.46264503       3.38896543      -0.00132134       0.00224999      -0.00206416
H        1.81507762       1.59539544      -1.04675583      -0.00277804      -0.00306866      -0.00225861
H        2.72114343       0.33491814      -3.37492625       0.00005560      -0.00107356       0.00050162
H        1.06645569      -2.26948103      -3.61556860      -0.00029801      -0.00179614       0.00212731
H       -1.89986871      -1.45269884      -3.67745198      -0.00050123      -0.00165035       0.00301144
H        0.18043403       0.22404967      -5.16449391      -0.00124588      -0.00257429       0.00129098
H        0.80304929       2.66185678      -3.29054213      -0.00056239      -0.00091570      -0.00062064
H       -0.66881364       2.25110708      -1.08951565      -0.00020389       0.00084455       0.00104084
H        2.27814078      -1.26434449      -1.05284745      -0.00415620       0.00135330       0.00456392
H       -0.64962516      -2.51777867      -1.19797174       0.00073105      -0.00446036       0.00663279
H       -2.53391478       0.08109874      -1.13278063       0.00224915      -0.00246605       0.00490990
H       -1.99044260       1.63014683      -3.44955082      -0.00030217      -0.00234367       0.00211724
