45
Properties=species:S:1:pos:R:3:forces:R:3 charge=-1 spin=1 energy=-242.28866577148438 free_energy=-242.28866577148438 stress="-8.788285299488052e-08 1.458133169762732e-08 5.951227066702813e-08 1.458133169762732e-08 -5.3065335237079125e-08 4.0978076043529654e-08 5.951227066702813e-08 4.0978076043529654e-08 -2.3907111312837515e-07" pbc="F F F"
C       -1.39917259       0.32436718       1.55400000      -0.23510595      -0.03772101       0.23239386
B       -1.43249050      -0.52180029       3.01984080       0.00161315       0.00216004      -0.00057471
B        0.13866165      -1.32652575       3.07069946      -0.00129194       0.00276119       0.00103021
B        1.38948934      -0.05266008       3.06858047      -0.00248823       0.00142729       0.00273789
B       -0.13923380       0.19330818       3.97194665      -0.00205221       0.00101269       0.00135033
B       -1.16573079       1.20717135       3.02295185       0.00078556      -0.00236398      -0.00097052
C       -0.28633360       1.46590009       1.56400000       0.03100011       0.03665018       0.16997881
B       -0.72204065      -1.21833825       1.50775180       0.00363374       0.00515233       0.00365879
B        1.04834952      -0.96599872       1.57985361      -0.00600573       0.00477943       0.00413373
B        1.25900618       0.81955137       1.53100897       0.00407656       0.00100985       0.00052017
B        0.56098131       1.50424752       3.02196955      -0.00374905      -0.00081019      -0.00017273
C        1.14300000       0.92400000      -1.55300000       0.12405959      -0.04260361      -0.17473753
B        1.61576838       0.16568263      -2.98497296      -0.00236507       0.00048864       0.00069635
B        0.66154664      -1.32059280      -3.00676303      -0.00041656       0.00180075      -0.00009482
B       -1.06134059      -0.85510212      -3.05703334       0.00139301       0.00123914      -0.00154398
B        0.15209990       0.10915130      -3.95649728       0.00128114       0.00042322      -0.00068201
B        0.51517743       1.52307471      -3.03573803       0.00113668      -0.00332551       0.00038019
C       -0.40000000       1.32300000      -1.56800000      -0.13397259       0.23011754      -0.31442404
B        1.31771141      -0.74600299      -1.44391218      -0.00546068       0.00157950      -0.00267658
B       -0.33664520      -1.43162222      -1.53297405       0.00234518       0.00659397      -0.00347701
B       -1.43165242      -0.00680618      -1.54855024      -0.00240982      -0.00098920      -0.00076029
B       -1.12731902       0.90876002      -3.04209984       0.00378225      -0.00006695       0.00047717
Co       0.00000000       0.00000000       0.00000000       0.22593275      -0.20595402       0.07679774
H       -2.35286738       0.52238130       1.05699953      -0.00539842       0.00177500      -0.00227203
H       -2.46763506      -0.95953445       3.41608833      -0.00099914      -0.00184085       0.00067718
H        0.28236392      -2.37025360       3.63189761       0.00062359      -0.00002317       0.00182603
H        2.43298580      -0.18538986       3.63158945       0.00094190       0.00361320       0.00395605
H       -0.15216688       0.20581666       5.16151513      -0.00186624       0.00141531       0.00239357
H       -1.98295999       2.00727117       3.34055255      -0.00321186       0.00092828      -0.00020722
H       -0.51352070       2.41741749       1.07432030      -0.00068347       0.00148956      -0.00216850
H       -1.34469797      -2.14117985       1.07298034      -0.00506312      -0.00275762       0.00223108
H        1.86182380      -1.75029908       1.19117439       0.00199730      -0.00669057       0.00388194
H        2.16377815       1.44603858       1.06405226       0.00115442      -0.00217192       0.00791919
H        0.97979639       2.54294649       3.42848729      -0.00215816       0.00326338       0.00085701
H        1.85493241       1.58649869      -1.05545475       0.00176907       0.00328029       0.00294015
H        2.73652710       0.29117444      -3.36961509       0.00177920      -0.00213405      -0.00062613
H        1.07617408      -2.30850344      -3.53304493      -0.00061141      -0.00179109       0.00028419
H       -1.88072735      -1.50906810      -3.62685416      -0.00262856       0.00110883      -0.00193215
H        0.17710347       0.09967332      -5.14601158       0.00050428      -0.00046273      -0.00163426
H        0.81313200       2.62115219      -3.37390757       0.00247925       0.00161907      -0.00099346
H       -0.69351665       2.27748810      -1.11997738      -0.00024278       0.00201166       0.00100601
H        2.30808856      -1.21709598      -0.97234846       0.00564267       0.00127964      -0.00228664
H       -0.64367284      -2.50737615      -1.11269450       0.00152736      -0.00690668       0.00042950
H       -2.53653688       0.08999433      -1.09936055      -0.00146845      -0.00321063      -0.00897101
H       -2.00100407       1.59395536      -3.47464385       0.00019041       0.00284398      -0.00135159
