45
Properties=species:S:1:pos:R:3:forces:R:3 charge=-1 spin=1 energy=-54314.33065511483 free_energy=-54314.33065511483 stress="1.2858519554138184 -0.11644893884658813 0.3256736695766449 -0.11644893884658813 0.5809662342071533 -0.4986342787742615 0.3256736695766449 -0.4986342787742615 0.755791962146759" pbc="F F F"
C        1.17728099       0.82274386       1.55400000      -0.03232456      -0.18507120       0.02703973
B        0.58383469       1.42674094       3.01778240      -0.00104736      -0.00201420       0.00144001
B       -1.07149650       0.80609697       3.10465608       0.00206520       0.00438506      -0.00072457
B       -0.98125556      -0.96115171       3.08655459       0.00128129       0.00373038       0.00511792
B        0.24372415      -0.01610755       3.98483173       0.00223805      -0.00372208      -0.00289397
B        1.69847097       0.05681176       2.96824694      -0.00150084      -0.00250887      -0.00094675
C        1.28097064      -0.76809128       1.56400000      -0.49479830       0.42385930      -0.23037913
B       -0.42627068       1.37602087       1.55866929      -0.00064752      -0.00817313       0.00287277
B       -1.43257018      -0.09843691       1.58724260       0.00368629       0.00611508      -0.00046694
B       -0.26969546      -1.45537476       1.51796623       0.00143871       0.00228420      -0.00357030
B        0.71857151      -1.41720661       3.01246467       0.00347991       0.00211636      -0.00491220
C        1.14300000       0.92400000      -1.55300000      -0.46612662      -0.16231635       0.03028663
B        1.62222325       0.19667516      -2.99758094      -0.00164062       0.00118441      -0.00122461
B        0.66434176      -1.28817161      -3.08263155       0.00480078       0.00141140       0.00058015
B       -1.04521974      -0.83468063      -3.10794542       0.00359121       0.00194881      -0.00465675
B        0.15381357       0.16077941      -3.98779798      -0.00315231       0.00146605       0.00336449
B        0.51375524       1.57194810      -2.97345820      -0.00279791      -0.00057824       0.00165928
C       -0.40000000       1.32300000      -1.56800000       0.14262414       0.06131753       0.18455988
B        1.32059908      -0.75611153      -1.52632810      -0.00910434       0.00106663      -0.00213510
B       -0.32672931      -1.43617943      -1.58506211       0.00583963       0.00448765       0.00101637
B       -1.41890455      -0.02886879      -1.55403179       0.00225518      -0.00030413       0.00540026
B       -1.13170489       0.92216215      -3.03967962       0.00368998       0.00375639       0.00492793
Co       0.00000000       0.00000000       0.00000000       0.83934367      -0.15058054      -0.01752966
H        1.98839350       1.35382606       1.08252983       0.00288684       0.00662972       0.00440482
H        0.99359637       2.46614746       3.41012938      -0.00274508      -0.00026162       0.00044785
H       -1.91733744       1.41300024       3.67068669       0.00022303      -0.00357276       0.00042939
H       -1.76101216      -1.65491201       3.64689263       0.00001809      -0.00334052       0.00117023
H        0.33337256      -0.01760367       5.16749561      -0.00037301      -0.00179817      -0.00560662
H        2.83807157       0.11683044       3.27805947      -0.00343081      -0.00024636      -0.00131838
H        2.11979173      -1.21562180       1.06170337      -0.00030431       0.00123317       0.00237993
H       -0.68139454       2.45330269       1.12132995      -0.00171216       0.00217478      -0.00171950
H       -2.56878788      -0.16142384       1.25522104      -0.00213865       0.00017194       0.00048506
H       -0.42618874      -2.54851136       1.09649042      -0.00335411       0.00238683      -0.00030611
H        1.21169960      -2.41824202       3.40620820      -0.00098340       0.00144436      -0.00288481
H        1.81521202       1.61043716      -1.06559135       0.00697460       0.00201179      -0.00355674
H        2.73153003       0.36971757      -3.37405299      -0.00004116      -0.00243488      -0.00085308
H        1.09359095      -2.25013262      -3.62537148      -0.00338128       0.00042570      -0.00018061
H       -1.87315828      -1.45667528      -3.68307084      -0.00294691       0.00114846      -0.00087599
H        0.19131244       0.24166701      -5.17052259      -0.00192997       0.00006821       0.00656190
H        0.79694296       2.67818633      -3.28012701      -0.00006543      -0.00323117       0.00109959
H       -0.67409398       2.25256864      -1.09839340       0.00127411      -0.00168447      -0.00225900
H        2.30650122      -1.23910734      -1.06843981       0.00399333      -0.00117683       0.00152887
H       -0.62469120      -2.53201404      -1.24774326       0.00058895      -0.00142582      -0.00022489
H       -2.52800587       0.05904409      -1.15339970       0.00207203      -0.00194279      -0.00000115
H       -1.99353624       1.62261227      -3.44796502       0.00218190      -0.00044016       0.00245351
