45
Properties=species:S:1:pos:R:3:forces:R:3 charge=-1 spin=1 energy=-242.31552124023438 free_energy=-242.31552124023438 stress="2.3808878424347313e-08 -1.2060483278730771e-08 1.0127888749877911e-08 -1.2060483278730771e-08 5.8476423703268665e-08 3.843286577875915e-08 1.0127888749877911e-08 3.843286577875915e-08 6.68264803493912e-08" pbc="F F F"
C       -1.47683567      -0.08412498       1.59203427      -0.00779724       0.00821164       0.00827447
B       -1.27770319      -0.89025731       3.05030241       0.00207375      -0.00599913       0.01502730
B        0.45520222      -1.22157863       3.11414297       0.00440239      -0.00066847       0.00064747
B        1.30462042       0.34732664       3.11575328      -0.00025399       0.00076120      -0.01226426
B       -0.24394692       0.16544981       4.00481754       0.00619107      -0.00159871       0.00092258
B       -1.50220205       0.84672066       3.03393274      -0.00283399      -0.00074258       0.01371817
C       -0.71132444       1.32811891       1.59105211      -0.00981298      -0.01672876      -0.00662595
B       -0.38110135      -1.35274640       1.52799601      -0.01338494       0.01471719      -0.03301917
B        1.25508123      -0.63314699       1.63600000      -0.06129476       0.02200261      -0.07192920
B        0.94976216       1.12940457       1.55607204      -0.01331149      -0.03160137      -0.03469702
B        0.07793636       1.61158168       3.04426137       0.00184946      -0.00256601       0.00479612
C        1.14257969       0.96379298      -1.58985674      -0.01127614       0.01167554      -0.00225419
B        1.62171120       0.24658765      -3.02863869       0.00211813      -0.00622115      -0.01506416
B        0.69792877      -1.25446265      -3.08144312       0.00080036      -0.00340404       0.00079206
B       -1.03178923      -0.82238641      -3.11176137       0.00151499      -0.00256041       0.01079129
B        0.15782819       0.18442334      -4.00237047      -0.00073268      -0.00874598      -0.00154195
B        0.49882035       1.58737334      -3.05039905      -0.00373473       0.00186009      -0.01797243
C       -0.41985331       1.35998258      -1.61957099       0.00260988      -0.00399253      -0.00591603
B        1.32709998      -0.69586988      -1.48149471      -0.00859910       0.02668521       0.03912480
B       -0.27500000      -1.43300000      -1.61500000      -0.10040481       0.16501674       0.12148002
B       -1.39749032      -0.00826617      -1.57792587       0.01602271      -0.01104128       0.01256950
B       -1.13831939       0.94089021      -3.07309087      -0.00214704      -0.00545723      -0.00678021
Co       0.00000000       0.00000000       0.00000000       0.20282765      -0.15989202      -0.02555534
H       -2.43652919      -0.16244611       1.07532353       0.00224476       0.02245417      -0.01432998
H       -2.14800570      -1.60135735       3.44718249      -0.00153103      -0.00888130       0.00118475
H        0.87136361      -2.18121947       3.68984038       0.00260766      -0.00677198      -0.00613865
H        2.33207886       0.51852132       3.69903596      -0.00153124       0.00292769      -0.01131140
H       -0.28047461       0.18844419       5.19409031       0.00770895      -0.00653823       0.00218403
H       -2.51008931       1.39584533       3.33783545      -0.00550056      -0.00407840       0.00524962
H       -1.18309469       2.17418229       1.08284528      -0.00862086      -0.01170340      -0.00278325
H       -0.72361676      -2.41686587       1.10423154       0.00954939       0.00720981      -0.00939670
H        2.25287604      -1.17340213       1.25940545      -0.01486346       0.00619119      -0.00344496
H        1.64765459       1.97881886       1.08378912       0.00238636      -0.00719063       0.01918370
H        0.18989307       2.72881100       3.44459604      -0.00341522       0.00303915      -0.00225314
H        1.84201624       1.62242057      -1.07024143      -0.02518624       0.02796417       0.00933518
H        2.73945908       0.39446209      -3.41477375       0.01082048      -0.00062292       0.00747319
H        1.13117827      -2.21558127      -3.64198182       0.01222713      -0.00638202       0.01244210
H       -1.84772947      -1.47126653      -3.69353065       0.00536671      -0.00288901       0.00867013
H        0.17768494       0.21030923      -5.19199373       0.00428902      -0.01403823      -0.00274150
H        0.78288719       2.69466830      -3.37115562       0.00389095       0.00246462      -0.00691846
H       -0.72970933       2.29284394      -1.13922213       0.00513012      -0.00499848      -0.00130993
H        2.33752235      -1.15170524      -1.03626473      -0.01456279       0.00378107       0.01655822
H       -0.56182026      -2.52106621      -1.21226258       0.00256183       0.01750116       0.00871276
H       -2.50557848       0.04913834      -1.12800135       0.00248284      -0.00480665      -0.01829223
H       -2.03051303       1.60901012      -3.49624895      -0.00088130      -0.00434272      -0.00659694
