45
Properties=species:S:1:pos:R:3:forces:R:3 charge=-1 spin=1 energy=-54314.331759469685 free_energy=-54314.331759469685 stress="1.3639174699783325 -0.060401588678359985 0.21874786913394928 -0.060401588678359985 0.8334233164787292 -0.49379387497901917 0.21874786913394928 -0.49379387497901917 0.3950091302394867" pbc="F F F"
C        1.22137213       0.75574342       1.55400000      -0.09358995      -0.20230456       0.05659725
B        0.65833743       1.38827237       3.02103922       0.00867912      -0.00564689       0.00327357
B       -1.02809667       0.85770260       3.10985139       0.00797072       0.00130101      -0.01607129
B       -1.03407983      -0.91304014       3.08530562      -0.00562694       0.01503588       0.00895313
B        0.24109136      -0.03890653       3.98429275       0.00544209       0.00549539      -0.00093401
B        1.69727882      -0.04008418       2.96754388       0.00543989      -0.00622041      -0.00552191
C        1.23609730      -0.83839935       1.56400000      -0.50053507       0.41037232      -0.28739527
B       -0.35155783       1.39324357       1.56253085       0.00684587       0.01098481      -0.01053943
B       -1.43847127      -0.02110302       1.59169321       0.00104062       0.01708149      -0.02079596
B       -0.35484120      -1.44021091       1.51481234       0.01050745       0.01786883       0.01027419
B        0.63830277      -1.45998430       3.00552990      -0.00262302       0.00113507       0.01231653
C        1.14300000       0.92400000      -1.55300000      -0.46290186      -0.18411119       0.07476885
B        1.62412198       0.17913215      -2.99000668      -0.00602530       0.01447572      -0.00948833
B        0.66770513      -1.30755661      -3.06306690      -0.00207766       0.01326387       0.00300224
B       -1.04378375      -0.85329872      -3.09115294       0.00363180      -0.00056181      -0.00668181
B        0.15427087       0.13357661      -3.97824581      -0.00055046       0.00904377      -0.00155241
B        0.51465936       1.55499027      -2.97752669      -0.00913007       0.00963903       0.00472043
C       -0.40000000       1.32300000      -1.56800000       0.11019547      -0.04854469       0.16479939
B        1.32210894      -0.75713408      -1.51198400       0.01082433       0.00389435       0.00326282
B       -0.32371815      -1.44369883      -1.56841715       0.01478802      -0.00249874       0.01078137
B       -1.42007268      -0.03628205      -1.54495480       0.02070469       0.00433894       0.00391305
B       -1.13068885       0.90516145      -3.03480074      -0.00471754      -0.00332724      -0.00388379
Co       0.00000000       0.00000000       0.00000000       0.82209253      -0.14887916       0.03313143
H        2.05795899       1.24175485       1.07762310       0.00166248      -0.00272034       0.02331060
H        1.12140286       2.40307401       3.41835678       0.00645635      -0.00197188      -0.00310942
H       -1.84101242       1.50705129       3.67816581       0.01553162      -0.00407062      -0.00587837
H       -1.84789514      -1.56751931       3.64407543      -0.00697804       0.00125696       0.00670096
H        0.33163106      -0.05093017       5.16669287       0.00139493       0.00404807      -0.00162048
H        2.83789324      -0.04534435       3.27797295       0.00386322       0.00118583       0.00402944
H        2.04593914      -1.33176223       1.05720726       0.00273933       0.00511670       0.01955888
H       -0.54618607       2.48088283       1.11817775      -0.00404617       0.00474100       0.01967813
H       -2.57543250      -0.01572856       1.25491560       0.00354963      -0.00612856       0.01474590
H       -0.57897432      -2.52075439       1.09007986       0.01985927       0.01665403       0.02219745
H        1.07679994      -2.48815005       3.39305678       0.00084522      -0.00169327       0.01101022
H        1.81367662       1.61101971      -1.06333127       0.00307885      -0.00092494      -0.02495004
H        2.73360838       0.34670743      -3.36810948      -0.00115152       0.01053529      -0.00218819
H        1.09537686      -2.27670551      -3.59517891       0.00000299       0.01948337      -0.00349019
H       -1.87323836      -1.47882178      -3.65984115      -0.00140910      -0.00257622      -0.01098129
H        0.18917504       0.20325536      -5.16144924       0.00166632       0.00862013      -0.00090895
H        0.79715684       2.65686716      -3.29854621       0.00032696       0.00743256       0.00085469
H       -0.67461622       2.25443977      -1.10260956       0.00289594       0.00071410      -0.01040161
H        2.30748285      -1.22740096      -1.03842380       0.00342465      -0.01243887      -0.03403233
H       -0.61317086      -2.53761528      -1.21655917      -0.00998220       0.00934936      -0.02650839
H       -2.52891310       0.04702924      -1.14110043       0.01595195       0.00916177      -0.01894507
H       -1.99331503       1.59996579      -3.45035418      -0.00006766       0.00238940      -0.00600212
