45
Properties=species:S:1:pos:R:3:forces:R:3 charge=-1 spin=1 energy=-54314.477965371785 free_energy=-54314.477965371785 stress="1.5788627862930298 0.3101741373538971 0.6297710537910461 0.3101741373538971 0.490174800157547 -0.38185423612594604 0.6297710537910461 -0.38185423612594604 1.207376480102539" pbc="F F F"
C        0.56240308       1.32159024       1.55400000      -0.01712937      -0.22934593      -0.02899688
B       -0.27753943       1.49942996       3.00951989      -0.00249902       0.00271942       0.00169514
B       -1.35110373       0.09157507       3.07136229      -0.00250814       0.00233605       0.00172943
B       -0.33371060      -1.35825511       3.04945461      -0.00104037       0.00252781      -0.00243844
B        0.19351216       0.08545543       3.96603560      -0.00291415       0.00294630      -0.00204109
B        1.39830959       0.93418053       2.97210712      -0.00393553       0.00274327       0.00004500
C        1.49335108       0.02743267       1.56400000      -0.61801291       0.11875212      -0.34817436
B       -1.09756200       0.93590454       1.53554212      -0.00417389       0.00433228       0.00331208
B       -1.16491885      -0.84968460       1.54519106       0.00392705      -0.00235161       0.00640779
B        0.54369461      -1.38317051       1.49144678       0.00458459       0.00553244      -0.00404787
B        1.35067309      -0.83829081       2.99718632      -0.00284622       0.00061079      -0.00082190
C        1.14300000       0.92400000      -1.55300000      -0.51123101      -0.30091873       0.07640000
B        1.60680518       0.16337205      -2.98380420       0.00305546      -0.00261736       0.00013416
B        0.64316652      -1.32204601      -3.03170986       0.00329769      -0.00256882      -0.00053783
B       -1.06701852      -0.86304327      -3.05585138       0.00287769      -0.00061787       0.00290457
B        0.12990382       0.11264932      -3.96132027       0.00365943      -0.00261332       0.00359354
B        0.50386898       1.54550326      -2.97997300       0.00341722      -0.00302563       0.00051454
C       -0.40000000       1.32300000      -1.56800000       0.15108208       0.06300748       0.24426106
B        1.31812383      -0.76526662      -1.49062695       0.00523080      -0.00420984      -0.00074030
B       -0.33639525      -1.44234921      -1.52336840      -0.00399003       0.00282111      -0.00792441
B       -1.42727278      -0.02885354      -1.51801197       0.00380694       0.00470687       0.00272985
B       -1.14555666       0.89781781      -3.02134489       0.00102324      -0.00260305       0.00177489
Co       0.00000000       0.00000000       0.00000000       0.97067976       0.31848022       0.04566884
H        0.96363620       2.20750314       1.08477653       0.00106390       0.00806030       0.00083230
H       -0.48928537       2.59124987       3.41602688       0.00234760       0.00433243       0.00071018
H       -2.39277805       0.14646282       3.63311859      -0.00195345       0.00526702       0.00039196
H       -0.62706160      -2.36607219       3.59948242      -0.00400603       0.00537183      -0.00160666
H        0.25864872       0.11892614       5.14969252      -0.00101441       0.00106804      -0.00343644
H        2.32840182       1.58714342       3.30155571      -0.00168741      -0.00484530      -0.00237245
H        2.44453281       0.09028904       1.06109292       0.00578144       0.00176910      -0.00689180
H       -1.87839522       1.71169278       1.08403562       0.00696075      -0.00121605       0.00227588
H       -2.08729477      -1.50234741       1.18352211      -0.00386731       0.00349225      -0.00077459
H        0.99561059      -2.38262899       1.04702702      -0.00375672      -0.00167220       0.00055342
H        2.29730989      -1.42696933       3.39558170      -0.00535236      -0.00072383      -0.00222108
H        1.82231867       1.60907084      -1.06990187       0.00679827       0.00420939      -0.00130294
H        2.71269641       0.32200358      -3.37650494       0.00280701       0.00311697      -0.00145123
H        1.06163090      -2.29373936      -3.56507455       0.00539288      -0.00131847       0.00115734
H       -1.90124200      -1.48917803      -3.61820860       0.00705562      -0.00234855       0.00475042
H        0.15896741       0.17004867      -5.14554926       0.00012920      -0.00260642       0.00512108
H        0.78750756       2.64443291      -3.31418170      -0.00421581      -0.00333400       0.00105447
H       -0.67612471       2.25747362      -1.10469411      -0.00042755       0.00472753       0.00526477
H        2.29776929      -1.23947636      -1.01192752      -0.00375790       0.00708123      -0.00274466
H       -0.63482670      -2.52645289      -1.14605682       0.00548631      -0.00122570       0.00253817
H       -2.52833584       0.07374736      -1.09474025      -0.00038768      -0.00387376       0.00064838
H       -2.00705477       1.59386349      -3.43917735       0.00024199      -0.00597579       0.00205572
