45
Properties=species:S:1:pos:R:3:forces:R:3 charge=-1 spin=1 energy=-242.29849243164062 free_energy=-242.29849243164062 stress="-5.091674193380413e-09 5.560681248795163e-09 -3.328461062324095e-08 5.560681248795163e-09 2.8616584657470412e-08 3.108791446493342e-08 -3.328461062324095e-08 3.108791446493342e-08 2.1290199825330092e-08" pbc="F F F"
C        1.01744794       1.07478786       1.59542385       0.01660743       0.01182312       0.01696485
B        0.31842009       1.52482696       3.05041688      -0.01250462      -0.01404173       0.00785348
B       -1.17261849       0.57641221       3.11259795       0.00883304      -0.00352074      -0.00000653
B       -0.70883518      -1.14654552       3.10551946      -0.00116342      -0.00055487      -0.00152917
B        0.29030288       0.03790523       4.00287536      -0.00441612      -0.00117149      -0.00039077
B        1.67704246       0.41039314       3.03806730      -0.00885661      -0.00083924       0.02364377
C        1.43449098      -0.47193234       1.58810216      -0.01120046      -0.03463650       0.02297801
B       -0.64634404       1.26500353       1.55734192      -0.01174626      -0.00851390       0.01618786
B       -1.34833378      -0.39761793       1.63600000       0.08343917       0.10273828      -0.17508149
B        0.07522892      -1.44935803       1.50549330       0.00792183       0.00185785       0.01917163
B        1.05436802      -1.22301571       3.04271645      -0.00502594      -0.00135091      -0.00338840
C        1.12874652       0.97241807      -1.58759428      -0.00497491       0.03146547      -0.01541504
B        1.62320728       0.25044504      -3.01780492      -0.01150133      -0.00449105      -0.01149886
B        0.70527242      -1.25748848      -3.07347927      -0.00445333       0.00755210      -0.00358653
B       -1.02493107      -0.82472098      -3.10587791      -0.00137500      -0.00067776       0.00242882
B        0.15767547       0.17983045      -4.00013721      -0.00532730      -0.00026343      -0.00159922
B        0.49062541       1.59039019      -3.05620022      -0.00944605      -0.00173006      -0.00851972
C       -0.42539801       1.36530746      -1.61964504      -0.02821286      -0.01676124      -0.02668877
B        1.34553894      -0.68554410      -1.51573216      -0.01757315      -0.00669174      -0.02347824
B       -0.27500000      -1.43300000      -1.61500000      -0.02920693       0.20456645       0.14239481
B       -1.38008481      -0.01385489      -1.53837047      -0.00012946       0.00505096      -0.00855314
B       -1.13531230       0.94028653      -3.08208788      -0.00373679      -0.00214811       0.01085309
Co       0.00000000       0.00000000       0.00000000       0.00392040      -0.23588200       0.02973821
H        1.67593139       1.78760547       1.09265715       0.02265510       0.02701138       0.01539584
H        0.46961620       2.63662344       3.45357003      -0.00250894      -0.00404030       0.00284083
H       -2.13475531       0.98607961       3.68792511      -0.00222583      -0.00371729       0.00465965
H       -1.33710860      -1.98626131       3.67639021       0.00318136      -0.01193541      -0.00571075
H        0.32186538       0.04714923       5.19238335      -0.00003330      -0.00544864       0.00307772
H        2.78588875       0.70467131       3.34618846      -0.00934371       0.00055695       0.00296070
H        2.34580327      -0.76514121       1.06238081       0.01632310       0.00424024       0.02568037
H       -1.13498503       2.26327950       1.11491910      -0.00381073       0.00902937      -0.02332869
H       -2.43522328      -0.68298919       1.22921677      -0.01698921       0.00618633      -0.00873407
H        0.16631483      -2.56166795       1.07889060      -0.00550736      -0.00161010      -0.01354469
H        1.73240931      -2.12324898       3.43231673      -0.00673544       0.00539628      -0.00673129
H        1.81989648       1.65006907      -1.07995961       0.02482434       0.02654256      -0.02023715
H        2.74080873       0.40870610      -3.40049029       0.00138620       0.00605231      -0.00360546
H        1.14216478      -2.22007273      -3.62711195       0.00275744      -0.00419213      -0.00628651
H       -1.84369249      -1.47740109      -3.67980809      -0.00637156       0.00003604       0.00411937
H        0.18608602       0.18975147      -5.18972039       0.00058957      -0.00191869      -0.00278454
H        0.77741241       2.69670344      -3.37994367      -0.00772588      -0.00883359      -0.00362089
H       -0.74337480       2.28523545      -1.12070327      -0.00225890      -0.00406072      -0.01805013
H        2.34108298      -1.14271998      -1.04061944       0.03223207      -0.01219383       0.00253239
H       -0.56011248      -2.50919361      -1.18596783       0.00350432      -0.03207877       0.00724307
H       -2.50509467       0.06042390      -1.13914379       0.00309094      -0.01432736       0.02597822
H       -2.03551408       1.59797214      -3.50561098       0.00309499      -0.01247394       0.00566734
