45
Properties=species:S:1:pos:R:3:forces:R:3 charge=-1 spin=1 energy=-54314.361405389485 free_energy=-54314.361405389485 stress="1.4271475076675415 0.08714352548122406 0.4510880708694458 0.08714352548122406 0.48825526237487793 -0.5263124704360962 0.4510880708694458 -0.5263124704360962 0.7797814607620239" pbc="F F F"
C        1.01652748       1.01467724       1.55400000      -0.14562552      -0.19620964       0.06749298
B        0.31457974       1.49752563       3.01630258      -0.00162410       0.00000288      -0.00437490
B       -1.20308979       0.58821757       3.09538389       0.00050331      -0.00120103      -0.00146386
B       -0.79650245      -1.13437111       3.07537870      -0.00143963      -0.00142205      -0.00691406
B        0.23508568       0.01417456       3.97975796       0.00110850       0.00030262      -0.00159037
B        1.65699022       0.34996238       2.96998743      -0.00051378       0.00277156      -0.00062616
C        1.39488747      -0.53398403       1.56400000      -0.42678136       0.40514103      -0.29681781
B       -0.66758273       1.27089460       1.55397734       0.00480781       0.00182408       0.00263282
B       -1.39105940      -0.36235190       1.57419981      -0.00083437      -0.00801356       0.00006639
B       -0.00179591      -1.48739870       1.50739033      -0.00181650      -0.00245077       0.00042633
B        0.95723091      -1.27629887       3.00797680      -0.00179427      -0.00199346      -0.00313511
C        1.14300000       0.92400000      -1.55300000      -0.49209833      -0.32564393      -0.01301856
B        1.61194317       0.18247371      -2.99479793       0.00001090      -0.00215411       0.00511354
B        0.64215562      -1.29661273      -3.07122707      -0.00117392      -0.00034410       0.00304251
B       -1.06448651      -0.83115782      -3.09556023      -0.00150771      -0.00122654       0.00763522
B        0.14045539       0.15184213      -3.98161663       0.00027135       0.00122705       0.00189949
B        0.51288276       1.56527920      -2.97505723       0.00246060      -0.00057125       0.00076683
C       -0.40000000       1.32300000      -1.56800000       0.21581478       0.19270226       0.24899320
B        1.30829420      -0.76573104      -1.51966206       0.00203458       0.00445983      -0.00256939
B       -0.34642057      -1.43281226      -1.56975558      -0.00677807      -0.00121333       0.00044472
B       -1.42713604      -0.01702241      -1.54231775      -0.00266379      -0.00041935      -0.00101516
B       -1.13718788       0.92580653      -3.03463834      -0.00244762      -0.00191174       0.00411844
Co       0.00000000       0.00000000       0.00000000       0.87047046      -0.05621456      -0.01176015
H        1.72094117       1.68602972       1.08955647      -0.00598085       0.00415692       0.00205463
H        0.52816092       2.59274757       3.41304831      -0.00164432      -0.00345608       0.00296648
H       -2.14610590       1.03110661       3.65976003      -0.00005259      -0.00150709       0.00169799
H       -1.44129957      -1.95854311       3.63107051       0.00263408       0.00153042       0.00026836
H        0.31908229       0.02589370       5.16251164      -0.00014115      -0.00107587       0.00057748
H        2.76719693       0.60996822       3.28328646       0.00039496       0.00034943       0.00366110
H        2.30237238      -0.82517688       1.06437959      -0.00527209       0.00045347       0.00018298
H       -1.11367802       2.28372432       1.11669626      -0.00482621      -0.00020273      -0.00222981
H       -2.49558081      -0.63045346       1.23672333       0.00154527       0.00071498      -0.00418341
H        0.04705469      -2.58862114       1.07928218       0.00005002       0.00454566      -0.00464911
H        1.62198613      -2.17358840       3.39904229       0.00072157      -0.00053877       0.00324674
H        1.82259571       1.60772791      -1.07177234       0.00411676      -0.00587746      -0.00185725
H        2.72170353       0.34420721      -3.37557374      -0.00414886      -0.00133866      -0.00387992
H        1.06303989      -2.26353601      -3.61152814      -0.00190930      -0.00017572      -0.00206906
H       -1.89813742      -1.44989314      -3.66630217       0.00123168       0.00267980       0.00029948
H        0.17583847       0.22731890      -5.16445615      -0.00174159      -0.00053393      -0.00077758
H        0.79973729       2.66938696      -3.28607153       0.00060971       0.00030190      -0.00394844
H       -0.67022484       2.25562189      -1.10057314      -0.00059633      -0.00428218      -0.00103573
H        2.28915302      -1.25823682      -1.06204542      -0.00076308      -0.00540243       0.00371428
H       -0.65465662      -2.52426487      -1.22664125       0.00086021       0.00168481       0.00668837
H       -2.53325783       0.08525351      -1.13536542       0.00424460      -0.00004123       0.00285937
H       -1.99517691       1.63196511      -3.44088777       0.00028411       0.00057236      -0.00293414
