45
Properties=species:S:1:pos:R:3:forces:R:3 charge=-1 spin=1 energy=-54314.49686338204 free_energy=-54314.49686338204 stress="0.9815376400947571 0.4784108102321625 -0.9239726662635803 0.4784108102321625 0.4253973960876465 -0.7438126802444458 -0.9239726662635803 -0.7438126802444458 0.6852350234985352" pbc="F F F"
C       -0.19622159      -1.42281239       1.55400000      -0.00161080       0.24634725      -0.13525483
B        0.64494189      -1.37755914       3.01999993       0.01141890       0.00020891      -0.00279838
B        1.30060605       0.26248228       3.11114596      -0.00550601       0.02185375       0.01825493
B       -0.06499884       1.38842873       3.10341220      -0.01282150       0.01276290      -0.01242446
B       -0.19364113      -0.15675247       3.98914965      -0.00140954      -0.00790600       0.01021125
B       -1.11552901      -1.28237947       2.96594323      -0.00572507      -0.00765123      -0.00301736
C       -1.43391587      -0.41801347       1.56400000       0.39993635       0.05312447      -0.35209206
B        1.28955227      -0.60514704       1.55612301       0.01266474       0.02812821       0.02551352
B        0.87508642       1.12711426       1.60627709      -0.01755733       0.00808501      -0.00686641
B       -0.90532286       1.18983147       1.54483071      -0.01316614      -0.01452859      -0.03347111
B       -1.54987914       0.43564828       3.01597816      -0.00270860       0.00113051       0.00627782
C        1.14300000       0.92400000      -1.55300000      -0.41799384      -0.32477164       0.35257980
B        1.60469160       0.15901737      -2.97959144       0.01224373      -0.00496336       0.00363192
B        0.64056570      -1.32002198      -3.04394995      -0.01632902      -0.00563378      -0.02505084
B       -1.06679897      -0.85559344      -3.09228271      -0.01612981       0.00705388       0.00919240
B        0.13942401       0.11843767      -3.97329974       0.01097235       0.00832152      -0.01276604
B        0.51008882       1.54509969      -2.97825919       0.00281905       0.01015635       0.00285958
C       -0.40000000       1.32300000      -1.56800000       0.05112832       0.10954817       0.07895733
B        1.30703729      -0.76310738      -1.48348067      -0.01369615      -0.02803955      -0.02567253
B       -0.34396279      -1.43202582      -1.56117710      -0.01676456       0.01015758      -0.00501334
B       -1.43054762      -0.02058891      -1.56824025       0.00197364       0.02448746       0.02379641
B       -1.14026264       0.91053050      -3.04114802      -0.00020674      -0.00221670      -0.00749135
Co       0.00000000       0.00000000       0.00000000       0.01440007      -0.15304400       0.12149695
H       -0.33962453      -2.36593497       1.05546089      -0.00187286      -0.00236114       0.00488535
H        1.15098035      -2.37225876       3.41063607      -0.01071371      -0.00758931       0.02066171
H        2.32112483       0.47624244       3.67286941       0.00496538      -0.00587345       0.01919873
H       -0.05228072       2.43287701       3.66335543      -0.00140000       0.00570624       0.00925635
H       -0.25133607      -0.22809433       5.17076446      -0.01541145       0.00200129       0.01856208
H       -1.83852190      -2.16348667       3.27484030      -0.01343717      -0.00760082       0.00566894
H       -2.32906903      -0.73631832       1.05651941       0.01648890       0.01107634      -0.01390632
H        2.26704827      -1.14051839       1.16110422       0.01630706       0.02081810       0.02788102
H        1.59265421       2.00740323       1.24393563      -0.00093437       0.00000327       0.00024336
H       -1.60006712       2.03539749       1.08230662       0.00996721       0.00000223      -0.03342617
H       -2.62410809       0.73712872       3.41040446      -0.00898106       0.00321267      -0.00142266
H        1.81378244       1.59405364      -1.04366276      -0.00178076       0.00338219      -0.00320935
H        2.71532978       0.30241552      -3.35815357       0.00932796       0.01610245      -0.01829355
H        1.06411293      -2.29357582      -3.56847902       0.01694503      -0.00136885      -0.01889715
H       -1.90195875      -1.48069915      -3.65489566       0.00408469      -0.00373169      -0.01408614
H        0.18440009       0.17818489      -5.15594879      -0.00041472       0.01145990      -0.02164729
H        0.80243315       2.64077681      -3.30764277       0.00138997       0.01501031      -0.00548894
H       -0.66838221       2.25880204      -1.10532986      -0.00201271      -0.01917242       0.01283771
H        2.29249880      -1.24998869      -1.04768804      -0.00301015      -0.02399850      -0.02805300
H       -0.65185589      -2.51621545      -1.17397705       0.00047700      -0.00138180      -0.01275733
H       -2.53186794       0.08011703      -1.13477901       0.00399696      -0.00836275       0.02445697
H       -1.99409301       1.61358281      -3.46278457       0.00008668       0.00005444      -0.00331737
