45
Properties=species:S:1:pos:R:3:forces:R:3 charge=-1 spin=1 energy=-242.28482055664062 free_energy=-242.28482055664062 stress="-4.704382661202544e-08 1.1891895468352232e-08 -5.133374969545912e-08 1.1891895468352232e-08 -9.675893863914098e-08 5.097678368315428e-08 -5.133374969545912e-08 5.097678368315428e-08 -2.0715818038752332e-07" pbc="F F F"
C        1.05131996       0.97858282       1.55400000       0.10153204       0.17499782       0.30241817
B        0.37847156       1.47128870       3.02600977      -0.00562388      -0.00087868       0.00552759
B       -1.17329868       0.62927576       3.07942897       0.00096415      -0.00169745      -0.00152130
B       -0.82670565      -1.12104846       3.05573851      -0.00232074       0.00326361      -0.00014965
B        0.24147827      -0.01323302       3.97246583      -0.00336509       0.00019499      -0.00291083
B        1.65647597       0.27136821       3.02572264      -0.00224993       0.00045222       0.00538020
C        1.37540197      -0.58233961       1.56400000       0.02387473      -0.09288494       0.10987653
B       -0.59954052       1.30531383       1.54542639      -0.00333972       0.00054312       0.00116354
B       -1.39152653      -0.30379690       1.57249850      -0.00141782       0.00115636       0.00138827
B       -0.04343661      -1.47678759       1.48132428       0.00001721      -0.00146592      -0.00053469
B        0.92746714      -1.31636725       3.01387779      -0.00485771      -0.00126779       0.00340371
C        1.14300000       0.92400000      -1.55300000       0.08943614      -0.00285855      -0.22128503
B        1.61460100       0.19711866      -3.00013544      -0.00152042      -0.00488871      -0.00600369
B        0.67117652      -1.29413245      -3.04871915      -0.00291088       0.00070538       0.00076828
B       -1.05362392      -0.83785230      -3.07550773       0.00186814      -0.00158001       0.00036916
B        0.14179008       0.14940560      -3.97113869      -0.00258381      -0.00129452       0.00252359
B        0.50160228       1.54949030      -3.02767178      -0.00298774      -0.00099878      -0.00491508
C       -0.40000000       1.32300000      -1.56800000      -0.17578003       0.30604184      -0.24484441
B        1.34417721      -0.74075843      -1.50840174       0.00004715      -0.00220157      -0.00109304
B       -0.30871912      -1.43328026      -1.56593394       0.00129192      -0.00141540      -0.00122777
B       -1.40500763      -0.02572854      -1.51941980      -0.00137308      -0.00008889       0.00044863
B       -1.13260915       0.92371043      -3.04202748      -0.00128688      -0.00372851      -0.00247864
Co       0.00000000       0.00000000       0.00000000      -0.01109431      -0.38215160       0.05689920
H        1.76960444       1.65593561       1.08259475       0.00121514      -0.00053488       0.00038263
H        0.61024946       2.56631677       3.43520546       0.00002705      -0.00024641      -0.00003694
H       -2.11257092       1.08711080       3.65625563       0.00168765      -0.00157091      -0.00467596
H       -1.51954031      -1.92292360       3.60559694      -0.00059304       0.00164196      -0.00268248
H        0.26161379      -0.01762370       5.16238533      -0.00179422      -0.00050592      -0.00495332
H        2.77783692       0.49581596       3.34404295       0.00038910      -0.00021365       0.00025344
H        2.27715308      -0.93472314       1.05835687       0.00036035      -0.00043246      -0.00028367
H       -1.01603092       2.33352654       1.09649286       0.00322217       0.00263788      -0.00385496
H       -2.49920855      -0.52256731       1.17876170       0.00094522       0.00373694      -0.00397661
H       -0.02740139      -2.58499113       1.03695929      -0.00108463       0.00027182      -0.00380059
H        1.54015403      -2.26071837       3.40510390       0.00021330      -0.00035208      -0.00026779
H        1.85290280       1.59965706      -1.06742221       0.00016204       0.00130549      -0.00036291
H        2.72995968       0.34493368      -3.39225289      -0.00051281       0.00133616      -0.00178090
H        1.08101972      -2.26908931      -3.60141612      -0.00262792       0.00219023       0.00193097
H       -1.88105778      -1.48438456      -3.64341709       0.00062329      -0.00023542       0.00279742
H        0.16439170       0.15835569      -5.16096297      -0.00267491       0.00017348       0.00441729
H        0.79529941       2.65388568      -3.34902508      -0.00137253       0.00078651       0.00039047
H       -0.70605777       2.25718647      -1.08776481      -0.00021958      -0.00063054      -0.00002435
H        2.33215181      -1.22008811      -1.03735169       0.00281206       0.00180733       0.00111224
H       -0.60020656      -2.52210931      -1.17014324       0.00453648       0.00258160       0.00833697
H       -2.51882434       0.06394946      -1.09480257      -0.00085192      -0.00140379       0.00183781
H       -2.02111011       1.60261886      -3.45461675      -0.00078173      -0.00029738       0.00203796
