45
Properties=species:S:1:pos:R:3:forces:R:3 charge=-1 spin=1 energy=-54314.557709710774 free_energy=-54314.557709710774 stress="-0.024667691439390182 0.1325976401567459 0.039646394550800323 0.1325976401567459 0.2230582982301712 0.09607338160276413 0.039646394550800323 0.09607338160276413 -0.5888509750366211" pbc="F F F"
C       -0.63148732      -1.33099903       1.44705289       0.00012175      -0.01152181       0.00660053
B        0.13821542      -1.63436758       2.92429361       0.00390691       0.00166115      -0.02304593
B        1.28910348      -0.30282352       3.10709543      -0.00476945      -0.00854259      -0.01020951
B        0.36578778       1.20429365       3.14540917       0.00412998       0.00435419       0.00542412
B       -0.28539733      -0.25470714       3.94664034      -0.00372195       0.00549923       0.00791648
B       -1.49129896      -0.96759146       2.85403208      -0.00770066       0.00946474       0.00572212
C       -1.46125577       0.01694978       1.48762716       0.00112440       0.00077437       0.00560732
B        1.04032815      -1.04742740       1.50841174      -0.00667937      -0.01131813      -0.02668557
B        1.20708984       0.72044301       1.63600000      -0.01625769      -0.05354796       0.06138094
B       -0.44649872       1.36912948       1.57469064      -0.00985260       0.01415539      -0.00123280
B       -1.34555718       0.79113790       2.98924176       0.00426299       0.01750239       0.00043717
C        1.07748986       0.98127795      -1.45331626       0.01137080       0.00088444      -0.00654733
B        1.63484790       0.31282221      -2.90624523       0.00074436      -0.00689335       0.02375545
B        0.74802968      -1.21002316      -3.06979171       0.00739878       0.00862966       0.01128392
B       -0.97533847      -0.82253393      -3.14744404      -0.00173481      -0.00297192      -0.00575560
B        0.21025881       0.24507992      -3.95264514      -0.00358564       0.00343181      -0.00668743
B        0.47815816       1.64225933      -2.88820427      -0.00946625       0.00580847      -0.00777140
C       -0.46663977       1.33144906      -1.52939383       0.00000639      -0.00241569      -0.00546730
B        1.34373703      -0.69676396      -1.47099052       0.00788677       0.01003869       0.02800539
B       -0.27500000      -1.43300000      -1.61500000       0.11525493       0.18590628      -0.02589732
B       -1.41656931      -0.06985514      -1.60033425      -0.01666414       0.00538651       0.00034716
B       -1.13691145       0.93380956      -3.03383260      -0.01468537      -0.00975736      -0.00125585
Co       0.00000000       0.00000000       0.00000000       0.02260537      -0.24834138      -0.05041566
H       -1.06105093      -2.15351085       0.90119885      -0.00318622      -0.00466151       0.00308758
H        0.28085816      -2.75966835       3.25953043      -0.01245528       0.00755314       0.02254135
H        2.30870726      -0.46416920       3.68831307      -0.00755810       0.00595216       0.01059548
H        0.70143654       2.15871698       3.76212817       0.00609756       0.01110459       0.00497096
H       -0.39992067      -0.35967896       5.12148952      -0.00431308       0.01500130       0.01878511
H       -2.47346927      -1.57781416       3.09499448      -0.01557400       0.01005340       0.01627129
H       -2.40547528       0.02385312       0.97075572      -0.00298270       0.02228604       0.01457394
H        1.79772605      -1.85577794       1.09491712      -0.00001380       0.00205510      -0.01550477
H        2.18263488       1.32683385       1.32473824       0.00882985       0.00297503      -0.01032194
H       -0.81801150       2.41805054       1.15605015       0.01315342      -0.00436810       0.00411232
H       -2.28088066       1.40369255       3.37776222       0.00284437       0.01519654       0.00888550
H        1.70989761       1.66706737      -0.91544045       0.00324389       0.00242588      -0.00366473
H        2.75137010       0.53140852      -3.22967651      -0.01003063       0.00905571      -0.01942650
H        1.24096664      -2.13532113      -3.62165702      -0.00755863       0.00686461      -0.01001966
H       -1.76188604      -1.46018620      -3.76301258      -0.00688082      -0.00671332      -0.00538066
H        0.29262584       0.35978676      -5.12935521      -0.01265327       0.00112430      -0.01648681
H        0.74325374       2.76184627      -3.15469399      -0.01060409       0.01454982      -0.01385518
H       -0.78790338       2.23565561      -1.04113447      -0.01860807      -0.00511924      -0.01401322
H        2.34642107      -1.14276653      -1.03044687      -0.00313614      -0.00182176       0.01699768
H       -0.53918333      -2.54351381      -1.28035252      -0.00071820      -0.00661014       0.01272918
H       -2.53688345      -0.04573951      -1.20339673       0.00933254      -0.01040293      -0.00248477
H       -2.01192502       1.61136333      -3.45367485      -0.01092416      -0.00468829      -0.00790083
