45
Properties=species:S:1:pos:R:3:forces:R:3 charge=-1 spin=1 energy=-54314.50078107613 free_energy=-54314.50078107613 stress="0.9521913528442383 -0.22377736866474152 0.27195820212364197 -0.22377736866474152 1.1380348205566406 -1.1280851364135742 0.27195820212364197 -1.1280851364135742 1.6818013191223145" pbc="F F F"
C        1.42573227       0.17373977       1.55400000      -0.10764480      -0.14229389      -0.07053895
B        1.17718861       0.99064875       3.01431942       0.00274982      -0.00037341      -0.00390128
B       -0.57540279       1.23105022       3.09235943       0.00513249      -0.00054292       0.00045439
B       -1.33774439      -0.36937261       3.06797861       0.00337896      -0.00140357      -0.00234781
B        0.18513083      -0.12008247       3.97332210       0.00138196       0.00027477      -0.00103308
B        1.51107471      -0.74528990       2.96774853       0.00120299      -0.00157128       0.00072856
C        0.77043293      -1.27956364       1.56400000      -0.45082006       0.61568403      -0.45387742
B        0.27426876       1.41646328       1.54834439       0.00315290       0.00275493      -0.00088248
B       -1.31099581       0.60597647       1.57618852      -0.00128613      -0.00321013      -0.00318684
B       -0.93721153      -1.14334275       1.50267141      -0.00281802       0.00555955       0.00021223
B       -0.05427797      -1.57995459       2.99716368       0.00228921       0.00172582       0.00387762
C        1.14300000       0.92400000      -1.55300000      -0.38991109      -0.10131891       0.24869196
B        1.62995576       0.18213531      -2.98588697       0.00118358       0.00250150       0.00204247
B        0.68431446      -1.31146220      -3.05872175       0.00315146       0.00420372       0.00022956
B       -1.03219995      -0.87004230      -3.08708174       0.00186293       0.00196494       0.00200850
B        0.15936760       0.12684957      -3.97349744       0.00121702       0.00133683       0.00122247
B        0.51105553       1.55287931      -2.97472983       0.00118164       0.00141015       0.00033579
C       -0.40000000       1.32300000      -1.56800000       0.01891345      -0.17311952       0.28481954
B        1.33024394      -0.75185209      -1.50394914       0.00367126       0.00226681      -0.00054832
B       -0.30438768      -1.44971247      -1.56610176      -0.00483458       0.00117860       0.00254548
B       -1.41475742      -0.05132926      -1.54364036       0.00129162      -0.00595385       0.00203982
B       -1.13167291       0.89148889      -3.03055390       0.00333006       0.00089152      -0.00360453
Co       0.00000000       0.00000000       0.00000000       0.87946695      -0.22175768      -0.01250257
H        2.38344980       0.25960387       1.06499686       0.00460591      -0.00552651       0.00153301
H        2.02714241       1.71084716       3.41565220      -0.00086365       0.00004244      -0.00017227
H       -1.03412785       2.16654104       3.65732307       0.00200663      -0.00043376      -0.00019689
H       -2.35453828      -0.61364283       3.62576578       0.00507096       0.00264000      -0.00119819
H        0.25502173      -0.16490295       5.15637678       0.00135524      -0.00033224      -0.00184684
H        2.53815318      -1.23096057       3.29358949       0.00203164      -0.00089619       0.00064487
H        1.29659564      -2.06365468       1.04637583      -0.00325979      -0.00245688       0.00592722
H        0.55907526       2.47827149       1.08642873       0.00146144       0.00486591      -0.00099929
H       -2.32911228       1.09496731       1.20676792       0.00115065       0.00227594       0.00347736
H       -1.59520959      -2.02159179       1.05917880      -0.00030672       0.00442535       0.00428055
H       -0.09875799      -2.69295631       3.39639952      -0.00110174       0.00022939       0.00018958
H        1.80619981       1.60786718      -1.04763378       0.00014397       0.00520197      -0.00282230
H        2.73683055       0.36112090      -3.36666956      -0.00027224      -0.00047548       0.00059635
H        1.12004487      -2.27474215      -3.59453142       0.00081939       0.00228880       0.00024536
H       -1.85687866      -1.49942882      -3.66004480       0.00442228       0.00171125       0.00154775
H        0.19476957       0.19768153      -5.15679907       0.00059450       0.00101691       0.00213422
H        0.78834225       2.65443936      -3.30090721       0.00004098       0.00133890      -0.00031228
H       -0.67522259       2.25026228      -1.09250227      -0.00178398      -0.00070525      -0.00396031
H        2.30858172      -1.21846824      -1.00747598       0.00371375      -0.00063738      -0.00000382
H       -0.58357668      -2.53944277      -1.18441623       0.00301463      -0.00065099      -0.00382256
H       -2.52038865       0.02257406      -1.12758683       0.00109099      -0.00294828      -0.00200686
H       -1.99692429       1.57918879      -3.45278562      -0.00117939      -0.00118194      -0.00002013
