45
Properties=species:S:1:pos:R:3:forces:R:3 charge=-1 spin=1 energy=-242.2970428466797 free_energy=-242.2970428466797 stress="-6.24261744519572e-08 -9.943413203927776e-09 3.9331887080606975e-08 -9.943413203927776e-09 -9.472879014538194e-08 1.012417101264873e-07 3.9331887080606975e-08 1.012417101264873e-07 -1.739694539537595e-07" pbc="F F F"
C       -0.94327096      -1.08311490       1.55400000      -0.11729601      -0.23971927       0.18171817
B       -0.22979458      -1.51213064       3.02911276       0.00079320       0.00125042       0.00038766
B        1.22179846      -0.50266201       3.08829916       0.00187546       0.00151989      -0.00294267
B        0.68801583       1.20041006       3.07953233       0.00056026       0.00221692       0.00100392
B       -0.26001653      -0.03324107       3.97894527      -0.00061391       0.00038782       0.00023781
B       -1.62966785      -0.46392507       3.02089867       0.00025032       0.00138595       0.00120080
C       -1.42873844       0.43538084       1.56400000      -0.05211648       0.05000259       0.09832817
B        0.72935784      -1.21394009       1.52640895       0.00343967       0.00032932       0.00650503
B        1.34713949       0.47298222       1.60758543      -0.00298321       0.00198570      -0.00012270
B       -0.12493097       1.49142995       1.53021698      -0.00118349       0.00192809      -0.00300907
B       -1.07728887       1.20078791       3.02257361      -0.00336282      -0.00055532       0.00149318
C        1.14300000       0.92400000      -1.55300000       0.15761371       0.00869462      -0.06856880
B        1.62371079       0.17955848      -2.98884339      -0.00082935      -0.00002633       0.00000234
B        0.67238915      -1.31054703      -3.01894306      -0.00097349      -0.00136837       0.00293636
B       -1.05154104      -0.84872887      -3.06999356      -0.00139315      -0.00062160      -0.00157031
B        0.16234965       0.12685202      -3.96241419       0.00071485       0.00115781      -0.00055206
B        0.52197447       1.53602432      -3.03428704      -0.00065087      -0.00042018      -0.00119367
C       -0.40000000       1.32300000      -1.56800000      -0.13097061       0.24290550      -0.31512681
B        1.32231115      -0.73955238      -1.45416114      -0.00035071      -0.00192970      -0.00526513
B       -0.33392966      -1.43648385      -1.56042909      -0.00144483       0.00259018      -0.00303935
B       -1.42550099      -0.01553130      -1.55619996      -0.00277185       0.00182886       0.00289066
B       -1.12051602       0.91772248      -3.04703866       0.00123986       0.00322596      -0.00193898
Co       0.00000000       0.00000000       0.00000000       0.15313765      -0.08954020       0.11245380
H       -1.56020473      -1.82721396       1.04067065       0.00212262       0.00095953       0.00193363
H       -0.33257649      -2.63295376       3.42209409       0.00148529       0.00088057      -0.00043966
H        2.20321338      -0.86977012       3.66080163       0.00026743       0.00242182      -0.00158954
H        1.28582733       2.06025404       3.65150912       0.00013647       0.00207949       0.00021040
H       -0.28635525      -0.03730722       5.16885067       0.00097489      -0.00007904       0.00086775
H       -2.72371775      -0.80917027       3.32712895       0.00129199       0.00007675       0.00063518
H       -2.36642916       0.68046339       1.05681437       0.00718304      -0.00116938      -0.00573185
H        1.25180291      -2.19893411       1.09425731       0.00477615       0.00364055       0.00384262
H        2.41535843       0.80772540       1.18450039      -0.00021780       0.00623658       0.00207353
H       -0.25473326       2.58305384       1.05873176      -0.00245478       0.00081126       0.00716314
H       -1.79904242       2.06213720       3.42008622      -0.00038424      -0.00055946       0.00152361
H        1.84852906       1.57998217      -1.03475375      -0.00338508       0.00030512      -0.00210436
H        2.74706191       0.30752957      -3.36646991      -0.00052559      -0.00113939       0.00074869
H        1.09282364      -2.29289751      -3.55151562      -0.00164755       0.00042444       0.00093811
H       -1.86944757      -1.49646665      -3.64916809      -0.00101916      -0.00004392      -0.00171257
H        0.18867674       0.12176958      -5.15234410       0.00103725       0.00015189      -0.00125891
H        0.82007390       2.63714862      -3.36341995       0.00059912      -0.00071269       0.00026095
H       -0.69363172       2.26882389      -1.10275905      -0.00427866      -0.00541151      -0.00421957
H        2.30838547      -1.20878528      -0.96908453      -0.00331682      -0.00440336      -0.00342821
H       -0.62857942      -2.50633034      -1.11285546      -0.00725313       0.00098936       0.00005766
H       -2.53522531       0.07941076      -1.11794061       0.00063597       0.00644362      -0.00427142
H       -1.99680782       1.60242940      -3.47625010       0.00128834       0.00086936      -0.00132760
