45
Properties=species:S:1:pos:R:3:forces:R:3 charge=-1 spin=1 energy=-242.3224334716797 free_energy=-242.3224334716797 stress="2.6011319320673465e-08 -4.371754958043539e-09 -2.832212464554118e-09 -4.371754958043539e-09 5.2984393761335014e-08 5.113746226470539e-08 -2.832212464554118e-09 5.113746226470539e-08 1.0007913431309134e-07" pbc="F F F"
C       -0.87900767      -1.19301860       1.59123927       0.00128016       0.00274628       0.01016468
B       -0.12929180      -1.55319807       3.05306237      -0.00405455      -0.00850204      -0.00950222
B        1.23294868      -0.42722268       3.11144244      -0.00299306      -0.00446586       0.00142959
B        0.56480903       1.22635109       3.11118534      -0.00585985      -0.00275616      -0.00826580
B       -0.28265590      -0.08153891       4.00481274      -0.00068554       0.00241287       0.00059917
B       -1.61031054      -0.62018308       3.03876788      -0.00577039       0.00263472      -0.01550734
C       -1.47829119       0.29641706       1.59001668       0.01666975      -0.02087431      -0.00203577
B        0.79458118      -1.16458380       1.53749195       0.00108364       0.00120467      -0.00208691
B        1.28786702       0.56347363       1.63600000      -0.02074784      -0.01035324      -0.04987714
B       -0.25781784       1.44663839       1.54365345      -0.01872113      -0.02317828       0.00218154
B       -1.19243241       1.08582909       3.04633648      -0.00495329      -0.01652351      -0.02219710
C        1.14011246       0.96716604      -1.58650975      -0.00604032       0.00609681      -0.01689902
B        1.62205809       0.24798973      -3.03023436       0.00755895       0.00916158       0.01810130
B        0.69879524      -1.25547863      -3.07815489       0.00902539       0.00351797       0.00467874
B       -1.03080453      -0.82441754      -3.10745172       0.00475641       0.00077568       0.00102115
B        0.15837230       0.18316155      -4.00247917       0.00262907      -0.00225557      -0.00195830
B        0.49988532       1.58796470      -3.05610364      -0.00380974       0.00761176       0.01247374
C       -0.41973612       1.36277945      -1.62172846       0.00810790      -0.01580283       0.00177768
B        1.33219208      -0.68791079      -1.48581683       0.00077909      -0.00408860       0.00218420
B       -0.27500000      -1.43300000      -1.61500000      -0.11909244       0.12759387       0.07642062
B       -1.39612759      -0.01363444      -1.57586511       0.02299631       0.02189867      -0.00185041
B       -1.13777245       0.94053450      -3.07682352       0.01274905       0.00512170       0.01147399
Co       0.00000000       0.00000000       0.00000000       0.12324627      -0.07798398      -0.00410716
H       -1.42989520      -1.97951381       1.06801394      -0.00093156       0.00433335      -0.01012295
H       -0.13354167      -2.67839480       3.44711359       0.00191211      -0.00233001       0.00420164
H        2.23769021      -0.71944633       3.68666076       0.00670855       0.00004172      -0.00680966
H        1.08634614       2.12782897       3.69445491       0.00040804       0.00645737      -0.01366571
H       -0.32059258      -0.09504824       5.19480005       0.01207375       0.00483447      -0.00181974
H       -2.67665099      -1.04683488       3.34086233       0.00370821      -0.00374812       0.01072921
H       -2.42766379       0.46812051       1.07560222       0.01305702      -0.00390624      -0.01028917
H        1.40233018      -2.09869422       1.10409911      -0.00107337      -0.00193027       0.00462431
H        2.33973399       0.98969413       1.25166122      -0.03177802      -0.01186947      -0.01603729
H       -0.47689239       2.52900581       1.08386873      -0.00590989       0.00075607      -0.00301421
H       -1.98220905       1.88612615       3.44392906       0.00519131      -0.00297900      -0.00712384
H        1.83649749       1.62778438      -1.06282823      -0.01882665       0.00961517       0.01100443
H        2.74223751       0.39442256      -3.41155234       0.00105035       0.00264519       0.00771832
H        1.13452061      -2.21680554      -3.63679606       0.00936969      -0.00435789       0.01454815
H       -1.84613550      -1.47269765      -3.69004261      -0.00058348      -0.01020224       0.00663984
H        0.17861369       0.20552978      -5.19271800       0.00190038      -0.01683132       0.00069772
H        0.78431866       2.69610398      -3.37461646       0.00177224      -0.00337166      -0.01308177
H       -0.72693015       2.29112750      -1.13249951      -0.00605503      -0.01173057       0.00497288
H        2.33623811      -1.15101594      -1.03145255      -0.00474837       0.01043945       0.01021390
H       -0.56388287      -2.52050753      -1.20554759       0.00292457       0.03082781       0.01564856
H       -2.50514542       0.05260141      -1.13143424      -0.00811183       0.00791125      -0.01033880
H       -2.03173925       1.60730002      -3.49901518      -0.00021231      -0.00859676      -0.00691515
