45
Properties=species:S:1:pos:R:3:forces:R:3 charge=-1 spin=1 energy=-54314.44380666512 free_energy=-54314.44380666512 stress="0.9474774599075317 -0.3652589023113251 0.2775397002696991 -0.3652589023113251 1.006648063659668 -0.8643600344657898 0.2775397002696991 -0.8643600344657898 1.4189372062683105" pbc="F F F"
C        1.38767724       0.37047252       1.55400000       0.02480528      -0.20284700      -0.09546804
B        1.04050416       1.14585153       3.01492929       0.00023234       0.00138341      -0.00255008
B       -0.72709016       1.14725059       3.09744676       0.00406195       0.00153248      -0.00036949
B       -1.26463816      -0.54067766       3.07635580       0.00219736      -0.00213087       0.00059991
B        0.21223124      -0.08786619       3.97713801      -0.00011067      -0.00060396       0.00012748
B        1.60614500      -0.52916370       2.96705932      -0.00046086       0.00034785       0.00018766
C        0.94101597      -1.15988747       1.56400000      -0.58629084       0.56141132      -0.34764498
B        0.08337459       1.44557291       1.55073458       0.00231313       0.00095178       0.00001253
B       -1.37677438       0.42690958       1.58208528      -0.00142372      -0.00066964       0.00073390
B       -0.76933451      -1.25545719       1.51065166       0.00015724       0.00328694       0.00119139
B        0.16963094      -1.56728810       3.00249684      -0.00040995       0.00169673       0.00266373
C        1.14300000       0.92400000      -1.55300000      -0.38382939       0.01198817       0.23748559
B        1.63547492       0.19398469      -2.98905262       0.00051667      -0.00052735       0.00148765
B        0.69684916      -1.30249339      -3.06598782       0.00333167       0.00255462       0.00008634
B       -1.02023865      -0.86790972      -3.09442185       0.00039194       0.00171600      -0.00047892
B        0.16675675       0.13621607      -3.97761301      -0.00122067       0.00116200       0.00005848
B        0.51115080       1.55980252      -2.97389447       0.00024095      -0.00041071       0.00059266
C       -0.40000000       1.32300000      -1.56800000       0.00653204      -0.21247049       0.21333881
B        1.33891537      -0.74620729      -1.50921133       0.00143929       0.00185503      -0.00173420
B       -0.29317059      -1.44976455      -1.57286021      -0.00233610      -0.00087864      -0.00082260
B       -1.40880649      -0.05586793      -1.54898652       0.00209219      -0.00247884      -0.00035910
B       -1.12808033       0.89246601      -3.03378456       0.00179469      -0.00022564      -0.00222054
Co       0.00000000       0.00000000       0.00000000       0.90705121      -0.17910917      -0.00697923
H        2.32580723       0.58388164       1.06529057       0.00471343       0.00103274       0.00795252
H        1.78695950       1.97467698       3.41239382       0.00122613       0.00022213      -0.00412983
H       -1.30708423       2.01193827       3.66338587       0.00030998      -0.00000865      -0.00087308
H       -2.23740384      -0.91929177       3.63705313       0.00051870       0.00045667      -0.00107194
H        0.29098867      -0.12198632       5.15991988       0.00188593      -0.00000412      -0.00050920
H        2.69177700      -0.86857418       3.28874325       0.00092140      -0.00094806      -0.00453371
H        1.56874480      -1.86633730       1.04902479      -0.00269160       0.00112767       0.00890105
H        0.22398075       2.53659156       1.09094036       0.00335985       0.00011425       0.00193376
H       -2.45495577       0.77360537       1.22575344      -0.00037561       0.00065131       0.00545663
H       -1.30681929      -2.21581661       1.07669326       0.00038233       0.00204353       0.00811666
H        0.27606175      -2.67562215       3.40311252       0.00054025       0.00005405      -0.00408676
H        1.80406523       1.61151381      -1.04930428       0.00193709       0.00350027      -0.00779711
H        2.74216841       0.37913626      -3.36741866       0.00039752       0.00029342       0.00470983
H        1.13620264      -2.26252879      -3.60429990      -0.00011389      -0.00022481       0.00115716
H       -1.84137706      -1.49970741      -3.66926224       0.00058791       0.00078200       0.00092462
H        0.20249974       0.21041873      -5.16063069       0.00127353       0.00126500       0.00080657
H        0.78674430       2.66337992      -3.29513009      -0.00051785       0.00065760       0.00407705
H       -0.67822997       2.24927888      -1.09327919       0.00055054      -0.00219741      -0.00577502
H        2.32210751      -1.20705132      -1.01754338       0.00216734       0.00389122      -0.00507312
H       -0.56793504      -2.54383108      -1.20435028       0.00005615      -0.00122659      -0.00861679
H       -2.51736365       0.01032855      -1.14059674       0.00168893       0.00062482      -0.00497078
H       -1.99649521       1.57673269      -3.45519746       0.00010644       0.00035847       0.00346218
