45
Properties=species:S:1:pos:R:3:forces:R:3 charge=-1 spin=1 energy=-242.29127502441406 free_energy=-242.29127502441406 stress="-7.445622429713694e-08 -5.97365712451392e-09 6.21156885927121e-08 -5.97365712451392e-09 -6.200593105631924e-08 7.746790231522027e-08 6.21156885927121e-08 7.746790231522027e-08 -1.729061978039681e-07" pbc="F F F"
C       -1.35845407      -0.46636954       1.55400000      -0.25199556      -0.12978441       0.18259858
B       -0.95526281      -1.19723280       3.02698366       0.00554340      -0.00177553       0.00661984
B        0.80375655      -1.04743362       3.08942368      -0.00149043       0.00051624       0.00160542
B        1.19241314       0.69564585       3.08378701      -0.00151154       0.00092700       0.00196859
B       -0.24421182       0.09709450       3.98003706      -0.00322635       0.00363274      -0.00243080
B       -1.64429211       0.41014521       3.01875754       0.00335194       0.00611925       0.00539621
C       -1.01963336       1.09142009       1.56400000       0.01883894       0.05309699       0.13238299
B        0.02594329      -1.41357743       1.51729875       0.00534114       0.00284410      -0.00506161
B        1.40233078      -0.26331620       1.60720702      -0.00489870      -0.00294925      -0.00759903
B        0.63782026       1.35428273       1.53542455      -0.00349064       0.00060242      -0.00031246
B       -0.33484581       1.57768329       3.02262757      -0.00174942      -0.00110158      -0.00177686
C        1.14300000       0.92400000      -1.55300000       0.14082387       0.03018540      -0.09179096
B        1.62263751       0.17770484      -2.98825396       0.00054075      -0.00717479      -0.00643136
B        0.67029132      -1.30981496      -3.01869085       0.00087811       0.00139992      -0.00133668
B       -1.05404852      -0.84694839      -3.07000473       0.00152403       0.00126881      -0.00339528
B        0.16151545       0.12503389      -3.96241114      -0.00071143       0.00310143       0.00144848
B        0.52208727       1.53432972      -3.03321618      -0.00805375       0.00113368      -0.00558978
C       -0.40000000       1.32300000      -1.56800000      -0.14633118       0.20451581      -0.32601476
B        1.31978630      -0.73924712      -1.44653493      -0.00525215      -0.00496946       0.00387654
B       -0.33569069      -1.43503242      -1.55559068       0.00402096       0.00355825       0.00743990
B       -1.42661536      -0.01490774      -1.55700440       0.00152913       0.00292432       0.00068489
B       -1.12184252       0.91834610      -3.04491187       0.00244045       0.00172886       0.00173448
Co       0.00000000       0.00000000       0.00000000       0.23879971      -0.18462498       0.10997824
H       -2.26842453      -0.79783372       1.04409265       0.00587196       0.00334147       0.00194177
H       -1.60118513      -2.11973282       3.41752284      -0.00235844       0.00017305       0.00041983
H        1.47318341      -1.85579092       3.65861400      -0.00163895       0.00063713       0.00103284
H        2.13876043       1.14015155       3.65900082      -0.00021748       0.00145587      -0.00026168
H       -0.27093730       0.10503182       5.16999473      -0.00060007       0.00110568      -0.00507185
H       -2.76478298       0.65625607       3.32480275       0.00126818       0.00040998      -0.00248168
H       -1.70825079       1.77517320       1.05830678      -0.00093416       0.00313415      -0.00050116
H       -0.01527304      -2.53064795       1.09384207      -0.00235252       0.00091594       0.00014709
H        2.50657821      -0.51573123       1.22546446      -0.00366193      -0.00210944      -0.00348087
H        1.07736164       2.35944084       1.05806201      -0.00047758      -0.00388144      -0.00503216
H       -0.53321596       2.68261599       3.42358015       0.00111867      -0.00249147      -0.00296766
H        1.84629191       1.58606106      -1.03995935      -0.00266027      -0.00033637       0.00048464
H        2.74617614       0.30059895      -3.36618173       0.00318360       0.00250346       0.00027490
H        1.08702464      -2.29524724      -3.54846268       0.00178967       0.00239180      -0.00062852
H       -1.87210769      -1.49442011      -3.64939233       0.00045237       0.00086113      -0.00165053
H        0.18731534       0.11994560      -5.15244315       0.00118926       0.00163355       0.00384675
H        0.82124982       2.63465502      -3.36364729       0.00026006       0.00076738       0.00244710
H       -0.69565403       2.27021743      -1.10569255      -0.00234273       0.00263086       0.00034185
H        2.31175034      -1.20916867      -0.97568006      -0.00060276       0.00259584       0.00235587
H       -0.62652668      -2.51800657      -1.14182474       0.00307435       0.00197706       0.00136223
H       -2.53510881       0.07468862      -1.11371971       0.00222851      -0.00137918       0.00185269
H       -1.99564717       1.60537725      -3.47564414       0.00248870      -0.00151163       0.00157391
