45
Properties=species:S:1:pos:R:3:forces:R:3 charge=-1 spin=1 energy=-242.2349090576172 free_energy=-242.2349090576172 stress="-6.108297867513102e-08 4.3394837945243125e-08 1.2305175545179736e-08 4.3394837945243125e-08 -6.713064948371539e-08 1.070823341109417e-08 1.2305175545179736e-08 1.070823341109417e-08 -2.2188805814948864e-07" pbc="F F F"
C       -0.65089113       1.28032759       1.55400000      -0.16698368       0.15542087       0.23313166
B       -1.31839565       0.76240714       3.02147218      -0.00156296       0.00066495      -0.00237785
B       -0.93231520      -0.95978503       3.06805178      -0.00113305      -0.00060555      -0.00148961
B        0.84297689      -1.10559947       3.05964190       0.00053313       0.00076096       0.00345150
B        0.06089791       0.22327338       3.97038566      -0.00026282       0.00218000       0.00058766
B        0.18079109       1.66437050       3.02243521       0.00057244       0.00014001      -0.00041463
C        0.93889293       1.16160668       1.56400000       0.07969727      -0.04411501       0.18227363
B       -1.41167198      -0.22070781       1.52194823      -0.00161368      -0.00047360       0.00219373
B       -0.07993864      -1.41632014       1.55722754       0.00125064      -0.00056565      -0.00177793
B        1.42935819      -0.44273358       1.52005332      -0.00014552       0.00156624      -0.00118484
B        1.51110351       0.52908600       3.02031045      -0.00139994       0.00302038       0.00122871
C        1.14300000       0.92400000      -1.55300000       0.10920215      -0.03628913      -0.20964031
B        1.60899514       0.17699256      -2.99417649       0.00106066      -0.00415409      -0.00104385
B        0.66000303      -1.31280909      -3.02019998      -0.00161354      -0.00016950       0.00179920
B       -1.06116151      -0.85547018      -3.05524551       0.00287154       0.00068679      -0.00289631
B        0.13926351       0.11877455      -3.95987262       0.00022717      -0.00200773       0.00091985
B        0.50336192       1.53015979      -3.03059746      -0.00016523      -0.00033584      -0.00279771
C       -0.40000000       1.32300000      -1.56800000      -0.19094425       0.22538014      -0.26378137
B        1.33384576      -0.74236659      -1.47370239      -0.00034016      -0.00349664      -0.00064453
B       -0.32209169      -1.42650085      -1.52329934      -0.00200342      -0.00061202       0.00005329
B       -1.42550821      -0.01489203      -1.53814598       0.00013390      -0.00169225       0.00277172
B       -1.13420770       0.90914857      -3.03753631       0.00065460      -0.00269226      -0.00550418
Co       0.00000000       0.00000000       0.00000000       0.17176108      -0.30465353       0.05528732
H       -1.10911133       2.14833268       1.07018496      -0.00088128       0.00086333      -0.00135541
H       -2.31250159       1.28101062       3.42461292      -0.00194991      -0.00034864      -0.00132750
H       -1.63533056      -1.74353468       3.63022291      -0.00095509       0.00001696      -0.00016757
H        1.41182460      -1.99498734       3.61598029       0.00074762       0.00005707       0.00221134
H        0.06568045       0.23929800       5.15992615      -0.00171334       0.00150573       0.00045690
H        0.27136445       2.80403875       3.34163599      -0.00195133      -0.00042975      -0.00113127
H        1.52909299       1.94082202       1.07400676       0.00290376       0.00198215      -0.00013343
H       -2.52115301      -0.32951201       1.09297903       0.00116879      -0.00190865       0.00183185
H       -0.17098722      -2.54212706       1.16473693       0.00112365       0.00006803       0.00104079
H        2.50771097      -0.73115623       1.09994644      -0.00024527       0.00172443       0.00709918
H        2.57790617       0.86971111       3.42714242      -0.00222346       0.00130934       0.00019068
H        1.85716482       1.59451412      -1.06729867      -0.00038072       0.00046477       0.00000763
H        2.72454364       0.31383364      -3.38910018       0.00221598      -0.00119340       0.00156777
H        1.06773669      -2.29883015      -3.55510693      -0.00022544       0.00154687       0.00309733
H       -1.88355548      -1.51134036      -3.61924324       0.00189397       0.00152756       0.00082308
H        0.15754443       0.11611406      -5.14955582       0.00171243      -0.00055742       0.00247060
H        0.79732281       2.63059834      -3.36442983       0.00204299       0.00062114       0.00005412
H       -0.70335311       2.26964472      -1.11012068      -0.00150128       0.00369268      -0.00020473
H        2.33423251      -1.21814067      -1.03193400      -0.00202217      -0.00222289      -0.00301606
H       -0.61123175      -2.50950887      -1.10800833      -0.00078159       0.00151645      -0.00006408
H       -2.53930893       0.08123631      -1.11797298      -0.00053763       0.00101927      -0.00360311
H       -2.01324425       1.59152109      -3.46372929       0.00176285       0.00078726       0.00000709
