45
Properties=species:S:1:pos:R:3:forces:R:3 charge=-1 spin=1 energy=-242.3161163330078 free_energy=-242.3161163330078 stress="-4.857730928620185e-08 3.745347143535582e-09 2.5503366529733285e-08 3.745347143535582e-09 -9.907485321036802e-08 1.1523438558924681e-07 2.5503366529733285e-08 1.1523438558924681e-07 -1.7037385191542853e-07" pbc="F F F"
C       -0.51593765      -1.34041275       1.55400000      -0.02827108      -0.23509631       0.19785690
B        0.29821223      -1.49539742       3.03414112      -0.00149130       0.00105367       0.00132262
B        1.31649104      -0.04736661       3.09235165      -0.00173274      -0.00074070       0.00015327
B        0.23105293       1.36714442       3.08056467       0.00294675      -0.00059515      -0.00084600
B       -0.23787384      -0.11620151       3.98169942       0.00168698       0.00060559       0.00055797
B       -1.37583990      -0.99147592       3.02310702       0.00063213      -0.00310412       0.00030740
C       -1.49148398      -0.07953316       1.56400000      -0.06201380       0.04110369       0.06939483
B        1.10060923      -0.89017840       1.53681675       0.00380178      -0.00039446       0.00361560
B        1.10202945       0.90582183       1.60774054       0.00127196      -0.00306052       0.00185713
B       -0.62699983       1.35791420       1.52723031       0.00517148       0.00293764      -0.00202586
B       -1.42762610       0.75894000       3.02390219       0.00056518       0.00451491       0.00335847
C        1.14300000       0.92400000      -1.55300000       0.13187726       0.01966053      -0.06776027
B        1.62218357       0.18254617      -2.99312482      -0.00071697       0.00143117      -0.00176048
B        0.66792015      -1.30767813      -3.02556543      -0.00074671       0.00252850      -0.00169509
B       -1.05379926      -0.84264930      -3.07679118       0.00294702      -0.00113849      -0.00077819
B        0.16201915       0.13329167      -3.96713055       0.00030204      -0.00046539      -0.00068455
B        0.52332085       1.53992718      -3.03576094       0.00337269       0.00124901       0.00004161
C       -0.40000000       1.32300000      -1.56800000      -0.13750133       0.23382801      -0.30024219
B        1.32112539      -0.73979422      -1.46474833       0.00166208      -0.00321289      -0.00319269
B       -0.33569419      -1.43354744      -1.56725481       0.00304104       0.00021294      -0.00392559
B       -1.42412022      -0.01410978      -1.55798284      -0.00075835      -0.00617096       0.00039622
B       -1.11771537       0.92485568      -3.05142592      -0.00297211      -0.00249403      -0.00492638
Co       0.00000000       0.00000000       0.00000000       0.09626818      -0.08272929       0.11312822
H       -0.84243369      -2.25108715       1.04392895       0.00033278       0.00653906       0.00402290
H        0.58742042      -2.58278116       3.42790774      -0.00319438       0.00183815       0.00237910
H        2.36450896      -0.05260854       3.66402303      -0.00407480       0.00035298       0.00156483
H        0.49543867       2.38183250       3.65005340      -0.00137140       0.00038955      -0.00177728
H       -0.25928680      -0.12914383       5.17179371      -0.00305852       0.00242998       0.00055005
H       -2.28431573      -1.69215492       3.32849873      -0.00341859       0.00025813       0.00019602
H       -2.45108810      -0.16503688       1.04759079       0.00158215      -0.00000979      -0.00290959
H        1.93305334      -1.64880125       1.13958817      -0.00095258      -0.00177427       0.00430982
H        1.99584148       1.58420136       1.19014341       0.00178636      -0.00444918       0.00202194
H       -1.12606554       2.34030510       1.06315843       0.00206650       0.00009796      -0.00446498
H       -2.40145485       1.32099659       3.41895393      -0.00425342       0.00335610      -0.00139160
H        1.84602134       1.58016029      -1.03268417      -0.00328052      -0.00111306      -0.00164445
H        2.74624852       0.30773293      -3.36932919      -0.00142032       0.00305363      -0.00181247
H        1.08551582      -2.29143138      -3.55719611      -0.00096208       0.00476079      -0.00296524
H       -1.87398268      -1.48793684      -3.65539909       0.00078271       0.00301751      -0.00019222
H        0.19082701       0.12737239      -5.15716385      -0.00159566       0.00384372      -0.00069223
H        0.82443226       2.64101164      -3.36165540      -0.00048579       0.00381580       0.00118366
H       -0.69791092       2.26309360      -1.09540186      -0.00112714       0.00135638       0.00329507
H        2.32029955      -1.20941553      -1.01163282       0.00134106       0.00071958      -0.00455818
H       -0.63000098      -2.50785201      -1.12924580       0.00456834      -0.00019825      -0.00478945
H       -2.53834480       0.08580653      -1.13442571       0.00041595      -0.00200042       0.00234243
H       -1.99305823       1.61156834      -3.47858353      -0.00302343       0.00379230       0.00117949
