45
Properties=species:S:1:pos:R:3:forces:R:3 charge=-1 spin=1 energy=-54314.532710092244 free_energy=-54314.532710092244 stress="1.0163463354110718 -0.022104483097791672 0.24987877905368805 -0.022104483097791672 1.1093388795852661 -1.456160306930542 0.24987877905368805 -1.456160306930542 1.8317826986312866" pbc="F F F"
C        1.43603704      -0.02637464       1.55400000      -0.26458955      -0.03249868      -0.00151824
B        1.28590127       0.81624484       3.01609659       0.00253411       0.00027067       0.00052468
B       -0.42193813       1.28337617       3.09051121       0.00507892       0.00195326       0.00331871
B       -1.38864841      -0.20281159       3.06100006       0.00192336       0.00347640      -0.00119845
B        0.15245024      -0.15571803       3.97110763      -0.00001747       0.00271843      -0.00118630
B        1.38904505      -0.94746693       2.96881843      -0.00073246       0.00161940       0.00169368
C        0.58485429      -1.37433455       1.56400000      -0.23843569       0.58526224      -0.56169194
B        0.45142473       1.36061994       1.55029997       0.00131331       0.00042349      -0.00022980
B       -1.22745051       0.76366005       1.57180898      -0.00104147       0.00063781       0.00372170
B       -1.08610382      -1.01819325       1.49484010       0.00093641       0.00061021       0.00190744
B       -0.27411054      -1.56932668       2.99250547       0.00235700       0.00311869       0.00367724
C        1.14300000       0.92400000      -1.55300000      -0.41549581      -0.25864911       0.20749497
B        1.61821777       0.17186629      -2.98680865       0.00189033       0.00176383       0.00039909
B        0.65827878      -1.31426527      -3.05858390       0.00440851       0.00149007      -0.00264961
B       -1.05486740      -0.85968944      -3.08414428       0.00393345      -0.00192964       0.00163539
B        0.14493110       0.12771040      -3.97260557       0.00092102      -0.00257672       0.00168066
B        0.51094352       1.55120625      -2.97501416       0.00085872      -0.00223155      -0.00209700
C       -0.40000000       1.32300000      -1.56800000       0.05060288      -0.03060580       0.37465647
B        1.31467526      -0.76062202      -1.50603250       0.00098291       0.00011248       0.00069209
B       -0.32738580      -1.44414845      -1.56454265       0.00017802      -0.00066974      -0.00149016
B       -1.42516281      -0.03800277      -1.53947966       0.00018940      -0.00150218      -0.00422340
B       -1.13805856       0.90185530      -3.02811338       0.00366314      -0.00079033      -0.00268341
Co       0.00000000       0.00000000       0.00000000       0.80009794      -0.28810140      -0.02649694
H        2.39714360      -0.06942954       1.06743532       0.00047958       0.00072057       0.00007825
H        2.21859035       1.42019947       3.42495345       0.00368551      -0.00113773      -0.00128684
H       -0.75489989       2.26997959       3.65658908       0.00359715       0.00370728      -0.00064843
H       -2.42999264      -0.31261857       3.61633735       0.00364702       0.00517779      -0.00084636
H        0.21201083      -0.21088636       5.15437437       0.00178067       0.00174340      -0.00365671
H        2.34009121      -1.56752886       3.29783705      -0.00203041       0.00027896      -0.00181203
H        1.00102466      -2.22218046       1.04580142      -0.00080527      -0.00072045      -0.00078808
H        0.86788227       2.38164081       1.09650184       0.00712496      -0.00172762      -0.00494780
H       -2.17104311       1.38034622       1.19275220       0.00360387       0.00586466       0.00351951
H       -1.84593310      -1.80457868       1.04106974      -0.00510387       0.00557522       0.00251176
H       -0.46340908      -2.66841597       3.38815697      -0.00177192       0.00277537      -0.00136412
H        1.81001022       1.60352680      -1.04793468       0.00044778       0.00033033      -0.00020815
H        2.72510350       0.33827071      -3.37283167       0.00143666       0.00302991       0.00077482
H        1.08591272      -2.28028512      -3.59588301       0.00457410      -0.00056160       0.00101416
H       -1.88563316      -1.48200438      -3.65627720       0.00572803      -0.00100812       0.00194372
H        0.17899281       0.19801717      -5.15606881       0.00139448      -0.00050787       0.00413898
H        0.79260747       2.65122586      -3.30294188      -0.00172588      -0.00191227       0.00150558
H       -0.67106876       2.25140082      -1.09146426      -0.00093112      -0.00001868       0.00049162
H        2.28842705      -1.24411563      -1.01712334       0.00425773       0.00647265       0.00566075
H       -0.61720572      -2.52924168      -1.17430431       0.00774732      -0.00166685      -0.00348277
H       -2.52710679       0.05063595      -1.11595508       0.00097362      -0.00668853      -0.00045576
H       -1.99773316       1.59858936      -3.44725637       0.00033279      -0.00362847       0.00192135
