45
Properties=species:S:1:pos:R:3:forces:R:3 charge=-1 spin=1 energy=-242.2948760986328 free_energy=-242.2948760986328 stress="-7.789702749505523e-08 1.0456166599226435e-08 6.846761380074895e-08 1.0456166599226435e-08 -4.539193554364829e-08 4.783301221777947e-08 6.846761380074895e-08 4.783301221777947e-08 -2.3004452032182598e-07" pbc="F F F"
C       -1.42541338       0.17633690       1.55400000      -0.24588984      -0.03905264       0.23005384
B       -1.37208980      -0.66735103       3.02297606      -0.00269469       0.00528388      -0.00192436
B        0.27422051      -1.30211221       3.07615129      -0.00410817       0.00066996       0.00062951
B        1.38470934       0.09564733       3.07354258      -0.00221115      -0.00065807       0.00311385
B       -0.16250508       0.18082695       3.97486038      -0.00378431      -0.00103203       0.00213308
B       -1.28850415       1.07989180       3.02334816      -0.00298095      -0.00041416      -0.00328925
C       -0.43799332       1.42793972       1.56400000       0.03408262       0.03104731       0.16982490
B       -0.59209624      -1.28413347       1.50976465       0.00135893      -0.00634535      -0.00372902
B        1.14306747      -0.85038088       1.58635727       0.00138435      -0.00460392       0.00018111
B        1.16636507       0.94388776       1.53351361       0.00208516      -0.00076133       0.00065331
B        0.39747531       1.55659330       3.02325012      -0.00567918       0.00242121      -0.00128226
C        1.14300000       0.92400000      -1.55300000       0.12337228      -0.02405587      -0.17022273
B        1.61645942       0.16648360      -2.98756527      -0.00001723       0.00331500       0.00260295
B        0.66160300      -1.31942273      -3.00981123       0.00511709       0.00367096      -0.00169233
B       -1.06037515      -0.85381764      -3.06037944       0.00233796       0.00157174      -0.00272210
B        0.15349142       0.11110487      -3.95870416       0.00409852      -0.00016201      -0.00070952
B        0.51746177       1.52429677      -3.03681978       0.00359297      -0.00011610       0.00194711
C       -0.40000000       1.32300000      -1.56800000      -0.13699439       0.21113469      -0.32106343
B        1.31769759      -0.74298918      -1.44445365       0.00235686      -0.00760531       0.00544167
B       -0.33620243      -1.43145976      -1.53743168       0.00259002      -0.00325993       0.00033338
B       -1.42986936      -0.00948193      -1.55097119       0.00027245       0.00175509      -0.00133005
B       -1.12504427       0.91066015      -3.04345934       0.00079424       0.00324125       0.00130658
Co       0.00000000       0.00000000       0.00000000       0.23576960      -0.20577769       0.08433482
H       -2.39331065       0.27448938       1.05427101       0.00410228      -0.00010120       0.00541984
H       -2.35538630      -1.21348888       3.41726383       0.00082257       0.00317454       0.00022264
H        0.52702623      -2.32578690       3.63585416      -0.00196933       0.00295819       0.00407982
H        2.43544309       0.07560582       3.63819948       0.00083576       0.00181494       0.00447536
H       -0.17717658       0.19197685       5.16444373      -0.00307988       0.00382440       0.00371416
H       -2.18617249       1.78965663       3.33911134      -0.00006318       0.00030355      -0.00310671
H       -0.76145834       2.34946878       1.07113696      -0.00097629      -0.00091378       0.00180890
H       -1.11975006      -2.26861881       1.08472379       0.00165066       0.00148473      -0.00091720
H        2.03217704      -1.55679475       1.21386379      -0.00547924       0.00415032      -0.00142229
H        2.00481311       1.66147512       1.07419284       0.00177176      -0.00041198       0.00034589
H        0.70355011       2.63447083       3.42850387      -0.00120848       0.00140980      -0.00045498
H        1.85340421       1.58584150      -1.05207754      -0.00301225       0.00079659      -0.00327038
H        2.73844159       0.28894042      -3.37007763      -0.00193393       0.00132232      -0.00097182
H        1.07623053      -2.30867583      -3.53364205       0.00005560       0.00167449      -0.00259992
H       -1.88114260      -1.50546394      -3.63077637      -0.00042990       0.00020613      -0.00286578
H        0.17832834       0.10031744      -5.14826178       0.00052754       0.00265145      -0.00242183
H        0.81682096       2.62232813      -3.37440927       0.00004578      -0.00039116       0.00213382
H       -0.69471818       2.27602355      -1.11777983       0.00126930       0.00033235      -0.00265148
H        2.31542244      -1.21326862      -0.98716004      -0.00827583       0.00453984       0.00298868
H       -0.63540179      -2.51208656      -1.12421515       0.00157865       0.00047278       0.00161260
H       -2.54008319       0.08406073      -1.11466419      -0.00080497      -0.00127455      -0.00035913
H       -1.99807283       1.59705264      -3.47549308      -0.00028017       0.00170986      -0.00035140
