45
Properties=species:S:1:pos:R:3:forces:R:3 charge=-1 spin=1 energy=-54314.58044530648 free_energy=-54314.58044530648 stress="-0.03188519552350044 0.12262209504842758 0.021540343761444092 0.12262209504842758 0.1071975976228714 0.039702534675598145 0.021540343761444092 0.039702534675598145 1.2610929012298584" pbc="F F F"
C        1.44990339      -0.19518122       1.49280537      -0.00837934       0.00692906      -0.00117570
B        1.47879787       0.60813818       2.97961188      -0.00838498       0.00071730       0.00717377
B       -0.14268814       1.29981810       3.13748646      -0.00614136       0.00063834      -0.00998443
B       -1.30444527      -0.03628248       3.11884706      -0.00194308      -0.00123725      -0.01493035
B        0.26413639      -0.22997093       3.95881006      -0.00978168      -0.00166354      -0.01619881
B        1.32899464      -1.14915510       2.87518951       0.00199929       0.00554040       0.00544324
C        0.41552963      -1.39397253       1.46771424      -0.00388721       0.00600181      -0.00715250
B        0.66728577       1.30148259       1.56261266      -0.01116967      -0.00427917      -0.01018193
B       -1.05819329       0.92538152       1.63600000      -0.21089047       0.11485365      -0.05482616
B       -1.19042080      -0.84711301       1.52483447      -0.01228677       0.02931735      -0.03061571
B       -0.39307521      -1.53859194       2.95857783       0.00565047      -0.00179512      -0.00343619
C        1.06641794       0.98114064      -1.48580328      -0.00384298      -0.00544829      -0.00198884
B        1.59236231       0.32601894      -2.95346620      -0.00916571      -0.00435003      -0.00882595
B        0.70731812      -1.20094648      -3.10263033      -0.00560159      -0.00434638       0.00745732
B       -1.02214682      -0.82344133      -3.11694241      -0.00478393      -0.00107943       0.01537871
B        0.13458460       0.25590925      -3.95578038      -0.01297337      -0.00365333       0.01621242
B        0.42206077       1.64773220      -2.89144627       0.00136069      -0.00320813      -0.00067366
C       -0.48183989       1.32567493      -1.49179904      -0.00222432      -0.00406210       0.01186411
B        1.33051890      -0.69241299      -1.52757135      -0.01318018       0.00082952       0.00594289
B       -0.27500000      -1.43300000      -1.61500000      -0.08506830       0.05481783       0.05629800
B       -1.43876317      -0.07958431      -1.54025269       0.00739500      -0.02809161       0.03633237
B       -1.19023763       0.92837549      -2.98779447       0.00073685       0.00475542       0.00711692
Co       0.00000000       0.00000000       0.00000000       0.52578241      -0.12674090      -0.00707596
H        2.38166655      -0.34839484       0.97448364      -0.02232177      -0.00944278      -0.00581058
H        2.50843759       1.06066134       3.35042009      -0.01302077       0.00588928       0.00852940
H       -0.31086428       2.31152780       3.73166425      -0.01671406      -0.01015896      -0.00153356
H       -2.32582442      -0.00808009       3.71986423      -0.00220071      -0.01829224      -0.02298801
H        0.36839825      -0.33041745       5.13676051      -0.01185735      -0.01172992      -0.02668424
H        2.19287579      -1.91387969       3.13050551       0.00651816       0.00495496      -0.00505262
H        0.70311489      -2.28902701       0.94090848       0.00598862       0.00394986      -0.00511121
H        1.19168645       2.27909463       1.12895837       0.00242605      -0.01876184      -0.02857517
H       -1.92100125       1.67597216       1.30179503       0.00877589      -0.00415060      -0.00100268
H       -2.06637611      -1.51281400       1.08864112      -0.00305913       0.00300366      -0.01435612
H       -0.70864074      -2.61503678       3.33407348       0.00654237      -0.01626868      -0.02303644
H        1.71444190       1.66947221      -0.96889270      -0.02024809      -0.00625965       0.00339256
H        2.69523671       0.57051074      -3.30925427      -0.01034246      -0.01087195      -0.01006123
H        1.19100190      -2.11997936      -3.67387536      -0.02121731      -0.00252164      -0.00381677
H       -1.81557558      -1.46229732      -3.72315694      -0.01633869       0.01178836       0.02222320
H        0.17864394       0.37979408      -5.13523493      -0.02212096       0.00328885       0.02548538
H        0.66348004       2.77212239      -3.16379943       0.00284172      -0.00267109       0.00532736
H       -0.79516644       2.22669837      -0.99029020       0.00593601       0.00394509       0.01010929
H        2.32770171      -1.15871954      -1.07291645      -0.01196767       0.02481540       0.02969321
H       -0.52532735      -2.54087912      -1.25853242       0.00902811       0.00597441      -0.00111465
H       -2.54593795      -0.06114390      -1.12211198      -0.00149546      -0.00532088       0.01758722
H       -2.07891623       1.59655316      -3.39162252      -0.00837272       0.01439487       0.02464184
