45
Properties=species:S:1:pos:R:3:forces:R:3 charge=-1 spin=1 energy=-54314.39438344735 free_energy=-54314.39438344735 stress="-0.25812476873397827 0.23282606899738312 0.3089769184589386 0.23282606899738312 -0.4515349268913269 0.237735778093338 0.3089769184589386 0.237735778093338 -0.2697506248950958" pbc="F F F"
C       -1.44780066      -0.09809956       1.50256037      -0.00225422      -0.01690481      -0.00347585
B       -1.28394189      -0.90001700       2.97601074      -0.00498063       0.00010479      -0.00756221
B        0.44569227      -1.21036361       3.12239709       0.00690148       0.00662127       0.02827643
B        1.27832736       0.35165761       3.12779222       0.00452624       0.02066172      -0.00718751
B       -0.28735654       0.18272420       3.96624405       0.00062733      -0.02599450       0.02133370
B       -1.53633781       0.84561194       2.90069130       0.00304327       0.01429975      -0.01213012
C       -0.70311229       1.29338150       1.50457152      -0.01442961       0.01639335       0.02769936
B       -0.34797796      -1.39407801       1.53294337      -0.00467112      -0.00012326       0.01184206
B        1.25508123      -0.63314699       1.63600000       0.12602887      -0.19378853      -0.25024503
B        0.97308394       1.10970055       1.54814246      -0.01909817       0.01155928       0.01751857
B        0.05696211       1.61427493       2.98572702      -0.00726613       0.00794684      -0.01828154
C        0.98758733       1.02285848      -1.53403095       0.01541057      -0.01044908       0.01005662
B        1.52358957       0.35490585      -2.98581325       0.00732619      -0.00162370       0.00943394
B        0.69203462      -1.19588720      -3.09743028      -0.00566839      -0.00146620      -0.02625260
B       -1.04916634      -0.87696554      -3.12479682      -0.01842722       0.01195188       0.00722186
B        0.06324550       0.22095830      -3.98479868       0.02382365      -0.01585440      -0.01959282
B        0.31364448       1.64003957      -2.95598501      -0.01558882       0.00791516       0.01124000
C       -0.56477620       1.30465722      -1.55651919      -0.00290233       0.02069282      -0.02611408
B        1.31524705      -0.64498307      -1.51504907       0.00517382       0.00613979      -0.00990898
B       -0.27500000      -1.43300000      -1.61500000       0.09301247      -0.13037437       0.32319343
B       -1.46113110      -0.12367094      -1.56693692       0.00331286       0.02093548      -0.02114907
B       -1.27867226       0.86781539      -3.03116228      -0.00047570       0.01026078       0.01864444
Co       0.00000000       0.00000000       0.00000000      -0.23700050       0.30774966      -0.09222873
H       -2.39029238      -0.14825204       0.98662048      -0.00477656      -0.01028164       0.01163564
H       -2.17640382      -1.58171682       3.34733949       0.00028670      -0.00446633       0.00938460
H        0.84810726      -2.15603242       3.70909057      -0.00083387      -0.01614584       0.01082237
H        2.28963093       0.55349575       3.71060152      -0.00001607      -0.01139188       0.01600659
H       -0.40355603       0.24633600       5.14322323      -0.00491053      -0.00493340       0.03641568
H       -2.55081555       1.39605371       3.15726108      -0.00173164      -0.00473580       0.01099234
H       -1.19147088       2.11965248       1.01371995      -0.01738489      -0.01802202      -0.00733206
H       -0.66009969      -2.45522676       1.11160887       0.00474503      -0.00803745       0.03246494
H        2.26541090      -1.17095322       1.32593497       0.00509136       0.00556069       0.02318292
H        1.68364282       1.94951185       1.09998894      -0.00803065       0.02736867       0.02018046
H        0.12168484       2.73992176       3.34865073       0.00065878      -0.00862214       0.01814420
H        1.61017536       1.74483406      -1.03544381       0.00941654      -0.00296499      -0.00616738
H        2.61501614       0.61869347      -3.35753685       0.00537028      -0.00264717      -0.00687568
H        1.18748634      -2.11405483      -3.65594146       0.01506817      -0.00936225      -0.00983633
H       -1.83355824      -1.55778874      -3.69442230       0.01145636      -0.00690656      -0.01648138
H        0.09389052       0.31909607      -5.16479570       0.01084292       0.00149156      -0.03510270
H        0.51496058       2.76895822      -3.24364049       0.00741185       0.00053664      -0.00862482
H       -0.91251768       2.21472248      -1.09497114       0.02438512       0.00254667       0.00900513
H        2.33813100      -1.04813172      -1.07631230       0.00271797      -0.01186175      -0.02857287
H       -0.48407189      -2.54870366      -1.27303272      -0.00755367      -0.00101297      -0.02615539
H       -2.56438844      -0.14533977      -1.12749037      -0.01822792       0.02322037      -0.02743833
H       -2.19848892       1.50651353      -3.41738611       0.00959112      -0.00598577      -0.01797994
