45
Properties=species:S:1:pos:R:3:forces:R:3 charge=-1 spin=1 energy=-242.2351837158203 free_energy=-242.2351837158203 stress="-6.275141117839667e-08 4.1832173280909046e-08 1.692446538470449e-08 4.1832173280909046e-08 -6.533940677400096e-08 1.0192601429537262e-08 1.692446538470449e-08 1.0192601429537262e-08 -2.099904179431178e-07" pbc="F F F"
C       -0.73861673       1.23180491       1.55400000      -0.17785516       0.15082428       0.22546285
B       -1.36932643       0.66868702       3.02039114      -0.00081572       0.00007331       0.00039407
B       -0.86351386      -1.02225284       3.06751820       0.00026459      -0.00036293       0.00032842
B        0.91844494      -1.04359680       3.06053194       0.00003213       0.00144285       0.00056562
B        0.04392703       0.22769591       3.97017516       0.00133169       0.00170112      -0.00041129
B        0.06327581       1.67345218       3.02182224       0.00138581      -0.00040352       0.00032425
C        0.85557624       1.22427092       1.56400000       0.08679502      -0.04375249       0.18178514
B       -1.39236660      -0.31915383       1.52010076      -0.00167400      -0.00008930       0.00174773
B        0.01978095      -1.41881994       1.55833907      -0.00039705      -0.00037876      -0.00101049
B        1.45842935      -0.34182479       1.52206360      -0.00121593       0.00028224      -0.00174019
B        1.47027087       0.63376645       3.02032091      -0.00166809       0.00298354       0.00014135
C        1.14300000       0.92400000      -1.55300000       0.11065229      -0.02658489      -0.19689925
B        1.61004547       0.17629414      -2.99246875       0.00101332      -0.00501322      -0.00434217
B        0.66082260      -1.31316321      -3.01826864      -0.00288823      -0.00042261      -0.00094046
B       -1.06087252      -0.85544270      -3.05536402       0.00297977       0.00052296      -0.00056054
B        0.14082369       0.11817317      -3.95932226      -0.00128816      -0.00215856       0.00232984
B        0.50467011       1.52977904      -3.03039379      -0.00138736      -0.00049040      -0.00377405
C       -0.40000000       1.32300000      -1.56800000      -0.19688469       0.22084759      -0.26832619
B        1.33316434      -0.74264701      -1.47038194       0.00091240      -0.00474783      -0.00187315
B       -0.32294078      -1.42668330      -1.52319472      -0.00096793      -0.00114506       0.00020136
B       -1.42679372      -0.01436877      -1.53945594      -0.00027579      -0.00350006       0.00047521
B       -1.13349288       0.90911197      -3.03765892       0.00070886      -0.00278676      -0.00396659
Co       0.00000000       0.00000000       0.00000000       0.17390008      -0.30354682       0.05732538
H       -1.25551085       2.06492625       1.06779140      -0.00195383       0.00171286      -0.00046458
H       -2.39769650       1.11602149       3.42309194      -0.00213441      -0.00028249      -0.00185771
H       -1.51037411      -1.85302038       3.62976003      -0.00073617       0.00011013      -0.00081197
H        1.54769278      -1.89081909       3.61798339      -0.00112966       0.00229470       0.00091074
H        0.04720788       0.24446363       5.15980218      -0.00211816       0.00112620      -0.00161105
H        0.07368525       2.81677230       3.34096700      -0.00158297      -0.00140822      -0.00146845
H        1.39036723       2.04193552       1.07275888       0.00247756       0.00510953      -0.00138586
H       -2.49066249      -0.50380977       1.08753454       0.00200202      -0.00132834      -0.00158352
H        0.00616500      -2.54882091       1.16689253       0.00073328       0.00035664       0.00182158
H        2.55076992      -0.55449900       1.09192239      -0.00244935       0.00174180       0.00472587
H        2.51006441       1.04915579       3.42792837      -0.00318044       0.00030242       0.00013001
H        1.85560714       1.59373519      -1.06376630       0.00242275       0.00156879      -0.00062303
H        2.72571207       0.31211884      -3.38743155       0.00416747      -0.00089275       0.00289978
H        1.06828992      -2.29934488      -3.55316098       0.00104812       0.00070167       0.00391778
H       -1.88310381      -1.51121837      -3.61993611       0.00389791       0.00241951       0.00137159
H        0.15914420       0.11532535      -5.14911926       0.00282381      -0.00119590       0.00507553
H        0.79870266       2.63012558      -3.36472526       0.00234058       0.00013438       0.00046796
H       -0.70366853       2.26994341      -1.11069691      -0.00034469       0.00436762       0.00211331
H        2.33161535      -1.21592230      -1.02064384      -0.00235324      -0.00185974       0.00059348
H       -0.61121313      -2.51036968      -1.10844506      -0.00071691       0.00115059      -0.00028701
H       -2.53945757       0.08060028      -1.11517705       0.00116283       0.00085969      -0.00092702
H       -2.01190628       1.59202765      -3.46455722       0.00296602      -0.00028343      -0.00024386
