45
Properties=species:S:1:pos:R:3:forces:R:3 charge=-1 spin=1 energy=-242.28184509277344 free_energy=-242.28184509277344 stress="-3.13153307729408e-08 -7.765526416347868e-11 -5.97116933676034e-09 -7.765526416347868e-11 4.3067913679806225e-08 6.065621249717879e-08 -5.97116933676034e-09 6.065621249717879e-08 7.318239170217566e-08" pbc="F F F"
C        0.35747610      -1.43817960       1.58883802       0.02176523      -0.00510564      -0.00437802
B        1.11414738      -1.09321002       3.05186650       0.00259860       0.00192088      -0.00280381
B        1.11529646       0.67833847       3.11009057       0.00505534       0.00593628       0.00072882
B       -0.58399071       1.21657448       3.10643089      -0.00931469       0.00160019      -0.00302305
B       -0.11805125      -0.27004325       4.00246263      -0.00746639       0.00213340      -0.00104247
B       -0.54910448      -1.63943885       3.03753067      -0.00421191       0.00305239       0.00792801
C       -1.16588799      -0.95114183       1.58374523      -0.01852321       0.00884035      -0.01055153
B        1.41199191      -0.13030286       1.55438790       0.01092672      -0.00593430       0.01359546
B        0.38675345       1.35149020       1.63600000       0.03956477      -0.08955190      -0.08935107
B       -1.27620031       0.72237076       1.53547855       0.01729143      -0.01713103      -0.00215957
B       -1.59450122      -0.23267143       3.04117279      -0.00517891       0.00122925       0.00080486
C        1.13165763       0.97246252      -1.58315658       0.01474413       0.00031957       0.01026888
B        1.62361705       0.25345223      -3.02307946       0.00171482      -0.00256705       0.00400967
B        0.70275175      -1.25607221      -3.07270783       0.00559640      -0.00716844       0.00345034
B       -1.02653889      -0.82774368      -3.10577705      -0.00482711      -0.00158575       0.00068360
B        0.16128934       0.18198008      -4.00054066      -0.00354538      -0.00045820       0.00119699
B        0.49802631       1.59127609      -3.05599404      -0.00863323       0.00064941      -0.01123128
C       -0.42227602       1.36013908      -1.61841438      -0.02560242       0.00355837       0.00586224
B        1.33907376      -0.68826779      -1.50087560       0.01300284      -0.00124942      -0.01407084
B       -0.27500000      -1.43300000      -1.61500000      -0.05301148       0.16579911       0.08070500
B       -1.39488471      -0.01415026      -1.57313083       0.01739994       0.00267056       0.00014037
B       -1.13388077       0.94160169      -3.07871444      -0.00428986      -0.00404558      -0.00640053
Co       0.00000000       0.00000000       0.00000000       0.03853556      -0.08143509       0.01275332
H        0.60775915      -2.36210051       1.05881248      -0.00582471       0.00632831       0.02281030
H        1.97873240      -1.81200329       3.44928252      -0.00495568      -0.00197028       0.00020605
H        1.98087963       1.26899226       3.68271226      -0.00673336       0.00209749       0.00190248
H       -0.95206030       2.19526419       3.68350171      -0.00247142      -0.00497657      -0.00723565
H       -0.12933136      -0.29934628       5.19316303      -0.00225465       0.00365612      -0.00686166
H       -0.89755683      -2.73226877       3.34468936      -0.00374035      -0.00691032      -0.00555499
H       -1.90239416      -1.56372016       1.05590354       0.00382188      -0.00379471      -0.00426574
H        2.52145769      -0.26976028       1.13550734       0.01242551       0.00315613      -0.00598091
H        0.73602739       2.42236630       1.23132616       0.00511732       0.01423581      -0.00628157
H       -2.24803346       1.24113044       1.07447451      -0.02200324      -0.00028823      -0.01074839
H       -2.71604076      -0.32663780       3.43521770      -0.00364697      -0.00266152      -0.00757901
H        1.81989667       1.63775990      -1.05275104      -0.01346813       0.00226286      -0.01969323
H        2.74394786       0.40061842      -3.40371754       0.00060251       0.01165259       0.00815348
H        1.14113014      -2.21897219      -3.62645083       0.00196159       0.00236018       0.00390099
H       -1.84440800      -1.47825044      -3.68380015       0.00861822      -0.00002351       0.00334989
H        0.18202663       0.19356864      -5.19131662       0.00498406      -0.00592193       0.00618479
H        0.78433829       2.69740721      -3.37940121      -0.00517818       0.00707549       0.00540067
H       -0.73907738       2.27955022      -1.11685202      -0.00259218       0.00050706      -0.00564086
H        2.34900884      -1.13846824      -1.05106283       0.00793898      -0.00090327       0.01390811
H       -0.55539916      -2.51327306      -1.18408842       0.00135627      -0.01086188       0.01050134
H       -2.50516622       0.05430177      -1.13738560      -0.01729430       0.00655573       0.00822799
H       -2.03141641       1.60317675      -3.50165690      -0.00025474      -0.00305314      -0.00181967
