45
Properties=species:S:1:pos:R:3:forces:R:3 charge=-1 spin=1 energy=-242.27810668945312 free_energy=-242.27810668945312 stress="-7.464159068604204e-08 1.2938421001251754e-08 -5.357214760692841e-08 1.2938421001251754e-08 -8.199447165679885e-08 9.222725338986493e-08 -5.357214760692841e-08 9.222725338986493e-08 -1.6416352366377396e-07" pbc="F F F"
C        1.41839099      -0.22597569       1.55400000       0.22892405       0.00434819       0.31026986
B        1.39646959       0.59965496       3.03292509       0.00383290      -0.00290113      -0.00624569
B       -0.22187632       1.30811355       3.08713105       0.00246246       0.00343089      -0.00222082
B       -1.38984637      -0.04078522       3.05816905      -0.00319871      -0.00029674      -0.00255670
B        0.14260606      -0.20880357       3.97404121       0.00035757       0.00213096       0.00173481
B        1.23670308      -1.14739146       3.02613946       0.00025511      -0.00116367      -0.00606275
C        0.38789213      -1.44235561       1.56400000      -0.07461306      -0.07039398       0.01653284
B        0.66086726       1.27825089       1.55350516       0.00286460      -0.00151029      -0.00244379
B       -1.09307642       0.92043227       1.59081719       0.00070891      -0.00097588      -0.00218192
B       -1.18851584      -0.87310808       1.48594389       0.00450595      -0.00441647      -0.00117689
B       -0.46504285      -1.54744801       3.01301185       0.00294140      -0.00342251      -0.00704759
C        1.14300000       0.92400000      -1.55300000       0.10925937       0.04264322      -0.18275858
B        1.61863086       0.20172614      -3.00203517       0.00095503       0.00634965       0.00751567
B        0.67712436      -1.29207110      -3.05049931       0.00523040      -0.00179519       0.00322827
B       -1.04722181      -0.83690455      -3.08000595      -0.00349100      -0.00242645       0.00356690
B        0.14826331       0.15651537      -3.97218469       0.00169256      -0.00114745      -0.00185102
B        0.50520160       1.55581762      -3.02841806       0.00140758      -0.00005360       0.00688788
C       -0.40000000       1.32300000      -1.56800000      -0.17099434       0.27699798      -0.22634482
B        1.34432300      -0.74180854      -1.50681805       0.00248653       0.00413910       0.00320175
B       -0.30148966      -1.43981206      -1.58261833       0.00016175       0.00182754       0.00351150
B       -1.40410453      -0.02311089      -1.53196402       0.00108051       0.00833155       0.00171898
B       -1.12844416       0.92832433      -3.04657174      -0.00050511       0.00473423       0.00856868
Co       0.00000000       0.00000000       0.00000000      -0.07657472      -0.26023427       0.06628995
H        2.38793842      -0.37491572       1.06924880      -0.00555860       0.00183297       0.00361063
H        2.40314365       1.08931713       3.44308706      -0.00166813      -0.00061299      -0.00026926
H       -0.43608629       2.32683481       3.67074231       0.00023238       0.00224285       0.00027043
H       -2.44698680       0.00869743       3.61087336      -0.00350964       0.00222601      -0.00022755
H        0.14968051      -0.23058620       5.16392375      -0.00132708       0.00071440       0.00475094
H        2.10425817      -1.89510201       3.33936700      -0.00170034       0.00027488       0.00124635
H        0.66099750      -2.36078373       1.03663281      -0.00116593       0.00070120       0.00081201
H        1.22666132       2.23547107       1.10980284      -0.00312943      -0.00178680      -0.00114870
H       -1.93731414       1.65807007       1.17187253      -0.00398577       0.00122505       0.00084193
H       -2.05101214      -1.56002394       1.02462006       0.00197107       0.00012979      -0.00117196
H       -0.83408787      -2.61370449       3.39787353      -0.00284041       0.00119129       0.00006139
H        1.84708983       1.59520380      -1.05201508      -0.00134255      -0.00056766      -0.00297261
H        2.73544680       0.35047376      -3.39138142      -0.00324377      -0.00091303      -0.00051752
H        1.08949442      -2.26329362      -3.60764228       0.00135852      -0.00239304      -0.00080431
H       -1.87352669      -1.48036313      -3.65305259      -0.00253780      -0.00419879      -0.00023419
H        0.17102419       0.16577889      -5.16192379      -0.00122323      -0.00113354      -0.00577958
H        0.79956262       2.66188901      -3.34439713      -0.00234304      -0.00227901      -0.00133558
H       -0.70607085       2.25234836      -1.07644019      -0.00119253       0.00026883      -0.00103635
H        2.33406375      -1.21031422      -1.02573445      -0.00632603       0.00222172       0.00642220
H       -0.58663662      -2.51446334      -1.14200320      -0.00010400      -0.00155453       0.00394222
H       -2.51971047       0.06242510      -1.10944024       0.00232629       0.00075443       0.00134267
H       -2.01739647       1.60835889      -3.45698681      -0.00243963      -0.00254016       0.00006007
