45
Properties=species:S:1:pos:R:3:forces:R:3 charge=-1 spin=1 energy=-54314.51333333748 free_energy=-54314.51333333748 stress="0.9825876355171204 0.04106750339269638 0.22884432971477509 0.04106750339269638 1.0173062086105347 -1.2711021900177002 0.22884432971477509 -1.2711021900177002 2.252387762069702" pbc="F F F"
C        1.43437873       0.07386249       1.55400000      -0.27195942      -0.03279415      -0.02228026
B        1.23716931       0.89957640       3.01851598       0.00438790      -0.00405862       0.00558489
B       -0.50015243       1.23659098       3.11164190       0.00859735       0.00549714      -0.01158368
B       -1.35275996      -0.31686538       3.08601261       0.00098944       0.01502051       0.00083301
B        0.19076191      -0.15696004       3.98191471      -0.00810765       0.00467795      -0.00593412
B        1.47024639      -0.85159996       2.96403096      -0.00039934      -0.00470086      -0.00763149
C        0.67929835      -1.33018937       1.56400000      -0.15506871       0.50959700      -0.54744732
B        0.34958077       1.38394541       1.56302618      -0.00169378       0.00123096      -0.01270124
B       -1.27830135       0.66161757       1.59567168      -0.00522848       0.01452651      -0.02822405
B       -1.00545282      -1.10207910       1.51167493      -0.01929276       0.03685056      -0.01281860
B       -0.14155702      -1.59499813       3.00201040       0.00146921       0.00686826       0.01109564
C        1.14300000       0.92400000      -1.55300000      -0.42343557      -0.31689858       0.22922523
B        1.62025342       0.16769073      -2.98345925      -0.00058961       0.00776297      -0.00896185
B        0.65417739      -1.31513291      -3.05898480       0.01108001       0.00723073       0.00841181
B       -1.05642409      -0.85334579      -3.08976329       0.00883123      -0.00420614      -0.00313318
B        0.15142849       0.12887536      -3.97445310      -0.00465020      -0.00345092       0.00520139
B        0.51796165       1.55090448      -2.97569713      -0.00256027       0.00473907       0.00925519
C       -0.40000000       1.32300000      -1.56800000       0.08360403       0.02177302       0.33171910
B        1.30913005      -0.76434545      -1.50583642      -0.00283318       0.00346017       0.00774019
B       -0.33750746      -1.44089450      -1.56713100       0.00392473      -0.01481508       0.02135482
B       -1.42873031      -0.02925578      -1.54550714       0.01702843      -0.03564910       0.02618407
B       -1.13243832       0.90745607      -3.03380603       0.00583535      -0.00045729      -0.01182289
Co       0.00000000       0.00000000       0.00000000       0.70379591      -0.27281258       0.02146769
H        2.39204766       0.10384313       1.06031505       0.01818843      -0.01560931      -0.01144497
H        2.12729715       1.56979289       3.41894895       0.00274899       0.00056116      -0.00020397
H       -0.89831486       2.19473834       3.68489038      -0.00066857      -0.00131883      -0.00760787
H       -2.37520558      -0.50425023       3.65507226      -0.00701308       0.00442214      -0.01363182
H        0.26923156      -0.21012733       5.16447950      -0.00925203      -0.00132513      -0.01009904
H        2.46875338      -1.40157829       3.27659344      -0.00601659      -0.00317491       0.00308847
H        1.15357289      -2.14391720       1.04110787       0.00396914      -0.00404959       0.00502618
H        0.68195460       2.43839831       1.11657399       0.02366791      -0.01088799      -0.02790567
H       -2.27027921       1.20472162       1.22670926       0.02362209       0.00791536       0.01806145
H       -1.70635132      -1.94333504       1.06087209      -0.01071634       0.02347502       0.01066621
H       -0.24081817      -2.70548544       3.39743685      -0.01028786      -0.00915782      -0.00974615
H        1.81172802       1.59968139      -1.04565511       0.00408164       0.02053167       0.00636094
H        2.72931837       0.32952858      -3.36502198       0.00207493       0.00411719      -0.00077790
H        1.08245049      -2.28268345      -3.59355409      -0.00352877       0.00463671       0.00143274
H       -1.88549478      -1.47273426      -3.66701041      -0.00319061      -0.00177710       0.00709613
H        0.19214169       0.19875848      -5.15798042      -0.00814183       0.00231751       0.01001085
H        0.80465769       2.65003175      -3.30210143      -0.00677726       0.00053367       0.00117889
H       -0.66958089       2.25294635      -1.09376595       0.00246329       0.00435691      -0.00116984
H        2.28115763      -1.25717726      -1.02305397       0.00756300       0.02924062       0.03307754
H       -0.63632573      -2.52336190      -1.17512103       0.02838754       0.01253531      -0.02748985
H       -2.53099013       0.06587618      -1.12365244       0.00779985      -0.02052637      -0.00236463
H       -1.98560141       1.60728602      -3.45972441      -0.01269847       0.00379201       0.01090795
