45
Properties=species:S:1:pos:R:3:forces:R:3 charge=-1 spin=1 energy=-54314.56731702584 free_energy=-54314.56731702584 stress="0.7496820688247681 0.6105576753616333 -1.0238767862319946 0.6105576753616333 0.9680243730545044 -1.4060629606246948 -1.0238767862319946 -1.4060629606246948 2.1321747303009033" pbc="F F F"
C        0.37047252      -1.38767724       1.55400000      -0.03736033       0.32103294      -0.17661540
B        1.12967200      -1.00998814       3.01925361      -0.00245124      -0.00158047      -0.00061317
B        1.09251068       0.75895212       3.11104985       0.00050307      -0.00195290      -0.00020935
B       -0.60449883       1.26529676       3.09254337       0.00087672       0.00058651      -0.00142697
B       -0.12365250      -0.20886301       3.98374006      -0.00399200       0.00173881       0.00059881
B       -0.53225994      -1.60848155       2.96396782       0.00097706      -0.00197758      -0.00062277
C       -1.15988747      -0.94101597       1.56400000       0.30307093       0.29392478      -0.53924400
B        1.42124053      -0.04582654       1.55760097      -0.00287285       0.00683055       0.00092351
B        0.36675256       1.38556766       1.59958224       0.00789834      -0.00177680      -0.00117059
B       -1.29545409       0.75254188       1.52987239      -0.00402984       0.00041129      -0.00338290
B       -1.60102806      -0.19056529       3.00567879      -0.00221823       0.00354008      -0.00090509
C        1.14300000       0.92400000      -1.55300000      -0.36241579      -0.32770708       0.47550899
B        1.61535053       0.16242307      -2.97692283      -0.00128240       0.00129017       0.00146270
B        0.65040712      -1.31865468      -3.05501881       0.00029131       0.00019338       0.00044190
B       -1.05826157      -0.85509977      -3.10117986       0.00028117      -0.00193443       0.00242641
B        0.15095197       0.12600663      -3.97560372      -0.00304303       0.00260722      -0.00034118
B        0.51452944       1.54944043      -2.97364190       0.00126296       0.00209039       0.00059733
C       -0.40000000       1.32300000      -1.56800000      -0.02979540       0.02676054       0.18641633
B        1.30571670      -0.76784625      -1.48934187      -0.00686147      -0.00362111       0.00042441
B       -0.34047179      -1.43343247      -1.57118013       0.00857763      -0.00203129       0.00176418
B       -1.42857611      -0.02804506      -1.57006257      -0.00300693       0.00263903       0.00317894
B       -1.13533304       0.90994270      -3.04198253      -0.00478196      -0.00239938       0.00112073
Co       0.00000000       0.00000000       0.00000000       0.12014511      -0.31064615       0.05365830
H        0.60463044      -2.31144684       1.05147566       0.00106424      -0.00061393       0.00005337
H        1.97448233      -1.73264644       3.42428358      -0.00018998       0.00068101      -0.00039916
H        1.94800285       1.34949805       3.68040951      -0.00134516      -0.00102791      -0.00215480
H       -1.00228056       2.23116416       3.65319042      -0.00026541       0.00053083       0.00140065
H       -0.15824851      -0.29563234       5.16597739       0.00134632      -0.00059255       0.00174262
H       -0.85877251      -2.69885242       3.28036758      -0.00109993      -0.00230612       0.00170696
H       -1.85635655      -1.57624599       1.04134694       0.00024552       0.00123359       0.00232541
H        2.52415479      -0.13930101       1.13125718       0.00821281      -0.00141332      -0.00141050
H        0.68831762       2.46923540       1.21745032      -0.00159015      -0.00077648       0.00041741
H       -2.25298820       1.26802947       1.05569874       0.00404808      -0.00303983       0.00170709
H       -2.70929176      -0.32886982       3.39707412      -0.00166168      -0.00093452       0.00287552
H        1.81053920       1.59198081      -1.03473793       0.00066830      -0.00008719      -0.00055997
H        2.72443960       0.31958892      -3.35804403      -0.00098074      -0.00037932       0.00044288
H        1.08108176      -2.28572013      -3.58792160      -0.00025285       0.00082481       0.00166190
H       -1.88890438      -1.47711633      -3.67426476      -0.00084141      -0.00078841      -0.00182315
H        0.19686801       0.19625480      -5.15850895       0.00130796      -0.00065251      -0.00184363
H        0.80571203       2.64650433      -3.30081626       0.00058410       0.00349749      -0.00239626
H       -0.66992897       2.25188970      -1.09141907      -0.00004995      -0.00082521      -0.00264277
H        2.27340872      -1.26538818      -1.01727369       0.00724239      -0.00328480       0.00133983
H       -0.64396607      -2.51504944      -1.16937576      -0.00151587       0.00006807      -0.00092182
H       -2.52768931       0.05415620      -1.13192091       0.00626799       0.00013016      -0.00246276
H       -1.98850062       1.61191387      -3.46593683      -0.00096749       0.00173783      -0.00304999
