45
Properties=species:S:1:pos:R:3:forces:R:3 charge=-1 spin=1 energy=-242.2711181640625 free_energy=-242.2711181640625 stress="-5.7045863144367104e-08 2.528550879787872e-08 -1.9445227650294328e-08 2.528550879787872e-08 -9.37845570092577e-08 1.0815955420184764e-07 -1.9445227650294328e-08 1.0815955420184764e-07 -1.2615137734428572e-07" pbc="F F F"
C        0.60581184      -1.30226342       1.55400000       0.13843977      -0.15090451       0.23241201
B        1.27741845      -0.83087629       3.03521327       0.00214509       0.00275458       0.00007615
B        0.95220355       0.90891386       3.09496675       0.00297557      -0.00091453      -0.00247826
B       -0.81902239       1.11783302       3.07183378       0.00096886       0.00275689       0.00105866
B       -0.09330032      -0.25192292       3.97929781       0.00532484      -0.00064087       0.00043840
B       -0.25504380      -1.67914033       3.02250441       0.00180160      -0.00031265      -0.00001885
C       -0.97886047      -1.12813217       1.56400000      -0.09352951      -0.03738484      -0.02040750
B        1.41975560       0.17191865       1.55331635      -0.00763643       0.00392587       0.00422171
B        0.13224086       1.41894732       1.60425687      -0.00081062       0.00093555      -0.00196548
B       -1.40381974       0.49464461       1.51041677      -0.00370333      -0.00321455      -0.00551608
B       -1.54404502      -0.49503892       3.01805473       0.00061819      -0.00315191      -0.00091662
C        1.14300000       0.92400000      -1.55300000       0.12790138       0.01073804      -0.09767678
B        1.62238018       0.19736821      -2.99674377       0.00057496      -0.00173102       0.00131137
B        0.67559417      -1.29677651      -3.03776635       0.00295615      -0.00005867       0.00212987
B       -1.04768891      -0.83806230      -3.07946998      -0.00021598      -0.00256527      -0.00177591
B        0.15660114       0.15047929      -3.96952823       0.00506446      -0.00019779      -0.00061168
B        0.51445683       1.55269723      -3.02979405       0.00200343      -0.00119558       0.00034158
C       -0.40000000       1.32300000      -1.56800000      -0.14493337       0.27430618      -0.20713319
B        1.33548397      -0.74271993      -1.48752086      -0.00792298       0.00121422      -0.00510062
B       -0.31817435      -1.43421896      -1.57638935      -0.00093403      -0.00127229       0.00190890
B       -1.41770966      -0.01820819      -1.55136011      -0.00240353       0.00584133       0.00497687
B       -1.12257809       0.92987324      -3.04974978       0.00170325       0.00290333       0.00070265
Co       0.00000000       0.00000000       0.00000000      -0.04028160      -0.10117336       0.09781409
H        1.03113971      -2.17318654       1.04612620       0.00100131       0.00212668       0.00118895
H        2.25121827      -1.38762111       3.43913212       0.00105160       0.00129598      -0.00316294
H        1.67761275       1.65484015       3.68024984       0.00045426      -0.00036399      -0.00355081
H       -1.36706080       2.01675463       3.63427733       0.00023280       0.00172125       0.00175188
H       -0.10828218      -0.27515362       5.16949790       0.00366477       0.00051366       0.00023311
H       -0.38950407      -2.81919693       3.32601143       0.00185284       0.00036475       0.00077121
H       -1.58157026      -1.87359468       1.03663528       0.00124784       0.00498421       0.00528270
H        2.52631417       0.24341177       1.10704742       0.00211869       0.00316229      -0.00860628
H        0.26234054       2.53566697       1.19057316      -0.00493021      -0.00007475      -0.00124758
H       -2.45915768       0.82128221       1.05660394       0.00211306      -0.00204815       0.00738338
H       -2.63209106      -0.79382098       3.40312379       0.00103208      -0.00040982       0.00305296
H        1.84681030       1.58245788      -1.03489663      -0.00316168      -0.00234694      -0.00147253
H        2.74239459       0.33740777      -3.38007016      -0.00067893      -0.00186701       0.00263685
H        1.09078702      -2.27152729      -3.58743011       0.00048492      -0.00003037       0.00279881
H       -1.86870279      -1.48288591      -3.65802942      -0.00086881      -0.00181101      -0.00242796
H        0.18048898       0.15455934      -5.15972414       0.00288661      -0.00156989      -0.00051062
H        0.80957608       2.65834256      -3.34632020       0.00119887      -0.00135455      -0.00072753
H       -0.69964558       2.25706478      -1.08151857      -0.00027695      -0.00215294      -0.00219835
H        2.31645367      -1.20751941      -0.98925526       0.00073406      -0.00425240       0.00811561
H       -0.61288138      -2.50714934      -1.13359878      -0.00367248       0.00150772      -0.00144858
H       -2.53407046       0.07636037      -1.13621706       0.00256010       0.00156012      -0.00852462
H       -2.00663356       1.61253623      -3.46629572       0.00084911       0.00038692      -0.00312856
