45
Properties=species:S:1:pos:R:3:forces:R:3 charge=-1 spin=1 energy=-242.3308868408203 free_energy=-242.3308868408203 stress="2.685299804738861e-08 -1.2193601683918587e-08 -1.8931864076421334e-08 -1.2193601683918587e-08 4.8232397631409185e-08 5.022487314931823e-08 -1.8931864076421334e-08 5.022487314931823e-08 6.797705509598018e-08" pbc="F F F"
C        1.19351807      -0.87581008       1.59177282       0.01121627      -0.01951063      -0.01013145
B        1.55523890      -0.12934217       3.05018318      -0.00761329       0.00802428       0.00800735
B        0.42654757       1.23555770       3.10948729      -0.00148194       0.00718203       0.00887170
B       -1.22571791       0.56299132       3.10667896       0.00213790      -0.00161357      -0.00066753
B        0.07838061      -0.28446444       4.00168676      -0.00369130       0.00088576       0.00441716
B        0.61995901      -1.61375899       3.03775458      -0.00688895      -0.00397367      -0.01259292
C       -0.29383799      -1.47903359       1.58000802       0.02655664      -0.02364671       0.01041856
B        1.17355862       0.80700334       1.56332097      -0.02275419      -0.01310880      -0.01291007
B       -0.56347363       1.28786702       1.63600000       0.11152776      -0.00289482      -0.11186092
B       -1.43585929      -0.26010069       1.52336291       0.01738274       0.00583541      -0.01848426
B       -1.07995068      -1.19757015       3.04293368       0.00128770      -0.01026064      -0.00913226
C        1.13055199       0.97014103      -1.58286987       0.01102154       0.01972985       0.00213197
B        1.62396953       0.25153546      -3.01986125      -0.00417873      -0.00058290       0.00133284
B        0.70421884      -1.25791635      -3.07039930       0.00530508      -0.00545424      -0.00794441
B       -1.02572143      -0.82694870      -3.10626965       0.00480597       0.00021441      -0.00077099
B        0.15985423       0.18206345      -3.99961336       0.00155374      -0.00284489      -0.00124475
B        0.49490525       1.59109692      -3.05629255      -0.00757049       0.00214076       0.01601329
C       -0.42557458       1.36187039      -1.61421112       0.01546755       0.01840070      -0.01733756
B        1.34368351      -0.69334281      -1.51197915      -0.02208275       0.01515179       0.00170279
B       -0.27500000      -1.43300000      -1.61500000      -0.02441366       0.13670969       0.08523090
B       -1.38840070      -0.00968298      -1.56230428       0.01784888      -0.00332984       0.01831844
B       -1.13332252       0.94145674      -3.08185166      -0.00049768       0.00583109       0.00903951
Co       0.00000000       0.00000000       0.00000000      -0.03542570      -0.13094302       0.02613420
H        1.97620224      -1.42870570       1.06568359      -0.00638258       0.00326897       0.04082849
H        2.67878995      -0.13659966       3.44966164      -0.00530189      -0.00117579       0.00544129
H        0.71552690       2.24099129       3.68392661      -0.00775314       0.00286548       0.00703805
H       -2.13414800       1.08319911       3.68186817      -0.00167643      -0.00993840      -0.01120935
H        0.08964560      -0.31280409       5.19205028      -0.00270321       0.00002741      -0.00088350
H        1.04916759      -2.67853624       3.34364064      -0.00455540       0.00898883      -0.00064586
H       -0.46628807      -2.42077508       1.05104182       0.00516640       0.03476251       0.00170501
H        2.11167261       1.40340686       1.12262227      -0.00409836       0.01702897      -0.00309481
H       -0.98167692       2.33407128       1.22867746       0.00138346      -0.01988361      -0.00658080
H       -2.52517539      -0.47940269       1.08743138      -0.01503675      -0.01718547      -0.01066595
H       -1.88584477      -1.98461939       3.43368680      -0.00334527      -0.00268619      -0.00336888
H        1.82030900       1.63614758      -1.05716695      -0.01660769      -0.00017904      -0.02105586
H        2.74338690       0.40467102      -3.40102746      -0.00563058       0.00812529       0.00357002
H        1.14217750      -2.21927263      -3.62546185       0.00094362      -0.00428474      -0.00152227
H       -1.84301973      -1.47899739      -3.68348098       0.00382835       0.00340118       0.00763387
H        0.18357136       0.19163612      -5.19003177       0.00553135      -0.00493538       0.00173779
H        0.78139989       2.69819260      -3.37812263      -0.00819744      -0.00753048       0.00174940
H       -0.74035581       2.28284447      -1.11409054      -0.00229466      -0.02433489       0.00016183
H        2.34565984      -1.13949438      -1.03726222       0.00371181      -0.00807357      -0.00604962
H       -0.55983166      -2.51232159      -1.18313083      -0.00312282       0.01249785       0.00214185
H       -2.50742320       0.05600201      -1.15155129      -0.02095340       0.01141230       0.00826810
H       -2.03212858       1.60213369      -3.50305887      -0.00241807      -0.00411350      -0.00374046
