45
Properties=species:S:1:pos:R:3:forces:R:3 charge=-1 spin=1 energy=-242.23104858398438 free_energy=-242.23104858398438 stress="3.5399194686647206e-09 -1.4192695907411235e-08 -3.4723524056090582e-09 -1.4192695907411235e-08 8.174764332125051e-08 2.4414477550749325e-08 -3.4723524056090582e-09 2.4414477550749325e-08 7.021064618584205e-08" pbc="F F F"
C       -1.00386202       1.08208218       1.59133557       0.01447679       0.00227669      -0.01211900
B       -1.49950524       0.41946753       3.04625338       0.00717373      -0.00503307       0.00517163
B       -0.65079050      -1.12814308       3.12134988      -0.00091414      -0.00150964      -0.01069449
B        1.09624624      -0.78342051       3.12046688      -0.00165085      -0.00937708      -0.00084740
B       -0.02644845       0.29999294       4.00492664      -0.00718836      -0.01262219       0.00282331
B       -0.30031123       1.69934159       3.02718760      -0.01059484      -0.00045836      -0.00810555
C        0.57750684       1.39018662       1.58888818      -0.03599985       0.02263129      -0.00242785
B       -1.28962569      -0.57099394       1.54206038      -0.00644135      -0.00591565      -0.00694308
B        0.31217074      -1.37063979       1.63600000      -0.07040875       0.06646314      -0.16471839
B        1.47496247      -0.02057443       1.55523402       0.01793852      -0.00638279      -0.00380358
B        1.29141991       0.96800695       3.04238805       0.00806917      -0.00493782       0.01304836
C        1.14753610       0.95708862      -1.59174007      -0.03160530       0.02261451       0.02643564
B        1.62261848       0.24569928      -3.02829271      -0.00996143      -0.00836197      -0.00925861
B        0.69491111      -1.25455960      -3.09234668       0.00191562       0.00030552       0.01378811
B       -1.03042345      -0.81840288      -3.11443108       0.00156054      -0.01114225      -0.00139853
B        0.15573149       0.19335132      -4.00243514       0.00332305      -0.01409888      -0.00242614
B        0.49880090       1.58990516      -3.04165400       0.00109179      -0.00251436      -0.00199635
C       -0.41759568       1.35541965      -1.61172387      -0.01135562       0.00333968      -0.00782725
B        1.33735461      -0.70236893      -1.50622616       0.00601828      -0.01425693       0.01953962
B       -0.27500000      -1.43300000      -1.61500000      -0.05394883       0.18245006       0.19157889
B       -1.39382259      -0.01569249      -1.57320041      -0.00834477       0.00702892       0.00369541
B       -1.13490298       0.94534705      -3.06607831      -0.01020862      -0.00380522      -0.01143547
Co       0.00000000       0.00000000       0.00000000       0.19502816      -0.26190910      -0.03243524
H       -1.67417679       1.77965176       1.07998862       0.00211146      -0.00643393       0.00611930
H       -2.60072439       0.64613919       3.44092163      -0.01100138      -0.01013536       0.01171711
H       -1.12494994      -2.05798056       3.70204317       0.00298279       0.00068758      -0.01178794
H        1.88827518      -1.46141479       3.70229824      -0.00222376      -0.00402877      -0.00207818
H       -0.03737603       0.35032379       5.19358103       0.00498107      -0.01234834       0.00469965
H       -0.52063135       2.82854384       3.32098830      -0.00214737      -0.00445163       0.01857778
H        0.93034613       2.29287983       1.08101283       0.00450897      -0.00155228      -0.00037222
H       -2.32463380      -0.99368330       1.11639088       0.00764159       0.01586235      -0.01352338
H        0.52893911      -2.48155083       1.24445716      -0.01349000       0.03281290       0.02026426
H        2.58834008      -0.02442929       1.12193350      -0.00771045       0.01073103      -0.03481651
H        2.22615546       1.59255896       3.43787873       0.00604182       0.00638510       0.01197247
H        1.84786140       1.62346748      -1.08116319       0.00966066       0.00292368       0.00778943
H        2.73900605       0.40104176      -3.41397444       0.01507691      -0.00475086      -0.01036082
H        1.12639791      -2.21336749      -3.65933282       0.00027006       0.00264163       0.01580081
H       -1.85077973      -1.46144567      -3.69650500       0.00173695      -0.00876153       0.00176565
H        0.18023238       0.22828936      -5.19154643      -0.00394019      -0.01573438      -0.00287424
H        0.78786243       2.69931383      -3.35001174      -0.00512096       0.00166678      -0.02423745
H       -0.72867185       2.28600910      -1.12609336       0.00002003      -0.00572005      -0.01473257
H        2.34832848      -1.17224253      -1.07522353      -0.01752118       0.02868631       0.03666472
H       -0.55877289      -2.51956163      -1.20091528       0.01299008       0.03029038      -0.01348791
H       -2.50780723       0.04168717      -1.14173033       0.00263145      -0.00002004       0.00729352
H       -2.02780712       1.61637425      -3.48261223      -0.00547118      -0.00353460      -0.01403806
