45
Properties=species:S:1:pos:R:3:forces:R:3 charge=-1 spin=1 energy=-242.30384826660156 free_energy=-242.30384826660156 stress="2.6914312556414188e-08 1.075896971514112e-08 -3.417887839418654e-08 1.075896971514112e-08 2.483530892050112e-08 4.724141078327193e-08 -3.417887839418654e-08 4.724141078327193e-08 4.3988272580008925e-08" pbc="F F F"
C        1.45777541       0.27109540       1.59638713       0.00875354      -0.00346960       0.00125641
B        1.15465408       1.04671204       3.04900076       0.00236828       0.00421520       0.00976893
B       -0.60911437       1.15649085       3.11059396      -0.00762140      -0.00175975       0.00265089
B       -1.24704315      -0.50997100       3.10663674      -0.00374539      -0.00495834      -0.00709547
B        0.25837631      -0.13892312       4.00214998      -0.00438043      -0.00599477      -0.00096210
B        1.59985314      -0.65402067       3.03784769      -0.00224053      -0.00166618       0.00548603
C        0.88024783      -1.22790257       1.58867588       0.03004006       0.00766125      -0.03071046
B        0.21734179       1.40498946       1.56162164       0.00627530       0.01682642      -0.01692872
B       -1.32453890       0.47085105       1.63600000       0.10205209       0.07286127      -0.12228711
B       -0.78840906      -1.22110732       1.50625875      -0.00290567       0.00910470      -0.00326101
B        0.13351290      -1.60962943       3.04218715       0.00468605       0.00200919       0.01020852
C        1.12901168       0.97422525      -1.58682214       0.01370490       0.00549358      -0.00526354
B        1.62393027       0.24993282      -3.01654562       0.00407572       0.00330293      -0.00883841
B        0.70550848      -1.25787458      -3.07113285      -0.00030458      -0.00398117      -0.00330787
B       -1.02474326      -0.82489484      -3.10654325      -0.00284132      -0.00058283       0.00690933
B        0.15866542       0.18037866      -3.99967177      -0.00416268      -0.00063470       0.00264404
B        0.49293154       1.59161385      -3.05581193      -0.00994044      -0.00116356      -0.00916581
C       -0.42688910       1.36458431      -1.62276038       0.01515865       0.01693696       0.02779630
B        1.34384164      -0.68894580      -1.51571984       0.02279744      -0.00153224       0.01971631
B       -0.27500000      -1.43300000      -1.61500000      -0.01456366       0.14381620       0.09410709
B       -1.38193624      -0.00773876      -1.54211803      -0.00145280      -0.01028353       0.00183600
B       -1.13591125       0.94034616      -3.08202928       0.00480888       0.00083323      -0.00854506
Co       0.00000000       0.00000000       0.00000000      -0.03890440      -0.20831446       0.03000781
H        2.40527962       0.46068082       1.08185377      -0.01070145      -0.00523736       0.03233362
H        1.93065045       1.85739838       3.45272892      -0.00564191      -0.00087196       0.00604206
H       -1.14660662       2.05347831       3.68675879      -0.00261193      -0.00852747       0.00223617
H       -2.24940679      -0.81845426       3.67831485       0.00207460      -0.01085476      -0.01019432
H        0.28857732      -0.15026302       5.19194164      -0.00271529      -0.00340020       0.00386027
H        2.66983127      -1.06850867       3.34471106      -0.00693035       0.00286406       0.00710808
H        1.44497628      -1.99481447       1.05221890       0.01748038      -0.00207883       0.01706763
H        0.41631800       2.50012855       1.11716201      -0.01944252      -0.02192643      -0.01467848
H       -2.37202978       0.87935271       1.22900898      -0.01124456      -0.00760810      -0.00288884
H       -1.37326605      -2.17240823       1.08013200       0.01111047      -0.00482972      -0.01780789
H        0.15467701      -2.73569176       3.43199948      -0.00731055      -0.01006186       0.00163487
H        1.82006225       1.64775273      -1.06936627      -0.01882124      -0.00132900      -0.03110133
H        2.74177262       0.40745992      -3.40101576      -0.00508597       0.00488501       0.00190915
H        1.14214561      -2.22031414      -3.62657000      -0.00256824       0.00462125       0.00002564
H       -1.84297892      -1.47802574      -3.68129378      -0.00252108       0.00324584       0.00852948
H        0.18541851       0.19028187      -5.18943491       0.00286635      -0.00280052      -0.00414547
H        0.77876360       2.69822954      -3.37840533      -0.00666609      -0.00373814      -0.00678407
H       -0.74180797       2.28193304      -1.11737130      -0.00193338       0.01917156      -0.01152718
H        2.34327514      -1.14188900      -1.03428233      -0.03210736       0.01144632       0.01055069
H       -0.55992025      -2.50963794      -1.18231670      -0.00960592      -0.00501959      -0.00746711
H       -2.50799798       0.06080889      -1.14464974       0.00268149       0.01044765       0.02583366
H       -2.03435008       1.60004819      -3.50433554      -0.01196286      -0.00711754      -0.00655833
