45
Properties=species:S:1:pos:R:3:forces:R:3 charge=-1 spin=1 energy=-242.28570556640625 free_energy=-242.28570556640625 stress="-6.591209000816889e-08 -1.2388575498789578e-08 4.670497233405513e-08 -1.2388575498789578e-08 -8.84467965533986e-08 9.787455468313055e-08 4.670497233405513e-08 9.787455468313055e-08 -1.6461980578696966e-07" pbc="F F F"
C       -1.05131996      -0.97858282       1.55400000      -0.13748842      -0.21816441       0.19394253
B       -0.38661018      -1.47984426       3.02910510       0.00059853       0.00049601      -0.00193177
B        1.16252092      -0.62763183       3.08834282       0.00019194       0.00045575      -0.00194958
B        0.80969255       1.12187168       3.07950618      -0.00028899       0.00282834      -0.00055829
B       -0.26205566      -0.00588191       3.97894786      -0.00044829       0.00004960      -0.00038809
B       -1.66923099      -0.29105400       3.02087644      -0.00028122       0.00191622      -0.00269098
C       -1.37540197       0.58233961       1.56400000      -0.03810140       0.04710571       0.10459128
B        0.59840958      -1.28351426       1.52631141      -0.00024596       0.00291443      -0.00642195
B        1.38927820       0.32955507       1.60757132      -0.00260666       0.00207008      -0.00205842
B        0.03166235       1.49622995       1.53029323      -0.00407119       0.00407988       0.00150028
B       -0.94580052       1.30679865       3.02254005      -0.00396021       0.00018339      -0.00396827
C        1.14300000       0.92400000      -1.55300000       0.15264311       0.00339931      -0.08134945
B        1.62372632       0.17955850      -2.98884320       0.00006381       0.00020983       0.00220765
B        0.67239741      -1.31051663      -3.01898964       0.00003341       0.00003777       0.00164090
B       -1.05150991      -0.84870190      -3.06996152      -0.00197071       0.00016078      -0.00044095
B        0.16233411       0.12683238      -3.96241542       0.00101451       0.00078486      -0.00019343
B        0.52198258       1.53602816      -3.03426693      -0.00106992       0.00070240       0.00234499
C       -0.40000000       1.32300000      -1.56800000      -0.12610364       0.23518977      -0.31935677
B        1.32231130      -0.73951806      -1.45408060      -0.00283331       0.00083012       0.00557952
B       -0.33392889      -1.43657233      -1.56035781      -0.00224417       0.00286326       0.00245361
B       -1.42539337      -0.01555924      -1.55627577      -0.00417298       0.00424983      -0.00131074
B       -1.12051751       0.91765362      -3.04699987       0.00061164       0.00400782       0.00321670
Co       0.00000000       0.00000000       0.00000000       0.17669903      -0.10931186       0.11147752
H       -1.74270372      -1.65414718       1.04062881      -0.00168081       0.00146313       0.00080822
H       -0.60599591      -2.58377650       3.42210091       0.00200810       0.00026584      -0.00029930
H        2.10023017      -1.09534203       3.66083023       0.00103717       0.00248242      -0.00052015
H        1.49414179       1.91454267       3.65151341       0.00035823       0.00179349       0.00093369
H       -0.28869961      -0.00716804       5.16883178       0.00120990      -0.00023676       0.00089513
H       -2.79340495      -0.52003233       3.32712184       0.00181761      -0.00008661      -0.00011794
H       -2.28247607       0.92413560       1.05688070      -0.00238291       0.00098211       0.00006161
H        1.01502441      -2.31779250       1.09419716      -0.00139114       0.00110983       0.00003453
H        2.48651968       0.55073132       1.18448195      -0.00019422       0.00246500      -0.00072969
H        0.01669673       2.59556275       1.05860623      -0.00030410      -0.00081118      -0.00064523
H       -1.57364122       2.23891582       3.42007074       0.00033978      -0.00135797       0.00149630
H        1.84860076       1.57999570      -1.03470752      -0.00281997       0.00236375      -0.00011612
H        2.74706874       0.30754620      -3.36648069       0.00007227      -0.00159386       0.00062299
H        1.09285041      -2.29291149      -3.55153343      -0.00158777      -0.00045814      -0.00031292
H       -1.86944120      -1.49647207      -3.64914958      -0.00108261      -0.00023019      -0.00270483
H        0.18866193       0.12176708      -5.15231746       0.00107468      -0.00006463      -0.00167608
H        0.82006642       2.63716268      -3.36342501       0.00054675      -0.00074863       0.00059506
H       -0.69358071       2.26895380      -1.10267158      -0.00410558       0.00272540      -0.00308872
H        2.30843817      -1.20872389      -0.96903233      -0.00068838       0.00158781      -0.00010481
H       -0.62846321      -2.50630142      -1.11287413      -0.00203016      -0.00037004       0.00002294
H       -2.53528770       0.07932267      -1.11785777       0.00215361       0.00139523       0.00006232
H       -1.99683994       1.60242880      -3.47623749       0.00168121       0.00026532      -0.00155307
