45
Properties=species:S:1:pos:R:3:forces:R:3 charge=-1 spin=1 energy=-242.29769897460938 free_energy=-242.29769897460938 stress="-8.774851067983036e-08 -8.22365620045673e-10 5.94257016928168e-08 -8.22365620045673e-10 -5.294880978112815e-08 5.876875164290141e-08 5.94257016928168e-08 5.876875164290141e-08 -2.015387963183457e-07" pbc="F F F"
C       -1.43092718      -0.12387659       1.55400000      -0.25016132      -0.06839214       0.20993264
B       -1.21380005      -0.93193585       3.02773180      -0.00309573       0.00256845      -0.00458120
B        0.52714672      -1.21173775       3.08908596       0.00008166       0.00218007       0.00135712
B        1.32514962       0.38523776       3.08505991      -0.00155294      -0.00008849       0.00146466
B       -0.21178047       0.15157005       3.98059100      -0.00070707      -0.00098115       0.00078385
B       -1.49404514       0.79441747       3.02049271      -0.00421975      -0.00057423      -0.00641181
C       -0.72530748       1.30567188       1.56400000       0.03417283       0.04345065       0.14407626
B       -0.31371181      -1.37654811       1.51428780       0.00182272      -0.00041971      -0.00115348
B        1.29361994      -0.59387710       1.60276799      -0.00248745      -0.00100142      -0.00518544
B        0.94562651       1.16129449       1.53821061      -0.00194805      -0.00141469       0.00055946
B        0.05662969       1.61006740       3.02431302       0.00193980       0.00178047      -0.00067070
C        1.14300000       0.92400000      -1.55300000       0.12883659       0.00874984      -0.12970394
B        1.62085263       0.17451682      -2.98986109      -0.00002888       0.00472836       0.00395767
B        0.66864627      -1.31134157      -3.01857095      -0.00099204       0.00122438      -0.00113561
B       -1.05451860      -0.84802044      -3.06973298       0.00148551       0.00136963      -0.00236323
B        0.15985814       0.12218494      -3.96292471       0.00208469       0.00058568      -0.00025490
B        0.52078229       1.53160402      -3.03519163       0.00370459       0.00200322       0.00607019
C       -0.40000000       1.32300000      -1.56800000      -0.14609346       0.19787213      -0.32494900
B        1.31684007      -0.74089637      -1.44512192      -0.00014272      -0.00148315       0.00063963
B       -0.33439703      -1.43223053      -1.55028291       0.00205000       0.00187671       0.00494966
B       -1.42668407      -0.01315741      -1.55680797       0.00275052      -0.00011748       0.00146197
B       -1.12151998       0.91688468      -3.04540428      -0.00155878       0.00032642      -0.00001925
Co       0.00000000       0.00000000       0.00000000       0.24433921      -0.20511401       0.10304585
H       -2.39488133      -0.22712864       1.04823152      -0.00526188      -0.00223684      -0.00238837
H       -2.06438052      -1.66995086       3.41817527      -0.00023077       0.00111271       0.00004019
H        0.98277389      -2.15842225       3.65584459      -0.00143443      -0.00013375       0.00167544
H        2.35298051       0.58643180       3.65644814       0.00053518       0.00157471       0.00335722
H       -0.23519842       0.16508793       5.17010638      -0.00138208       0.00131675       0.00363657
H       -2.52184209       1.30333370       3.32667737      -0.00129575       0.00180757       0.00017788
H       -1.22844527       2.13773124       1.06251239       0.00041696      -0.00062911      -0.00068979
H       -0.62428943      -2.45158333       1.09566923       0.00096112       0.00198530       0.00267841
H        2.30858639      -1.10621118       1.23631105       0.00019460       0.00154313       0.00341710
H        1.62030611       2.03423194       1.07719898      -0.00047583      -0.00181844      -0.00131197
H        0.13135003       2.72962004       3.42527197      -0.00037301       0.00331703      -0.00005369
H        1.84871288       1.58570697      -1.04471969       0.00223789      -0.00097790       0.00013763
H        2.74405858       0.29840328      -3.36844214      -0.00013855       0.00094603       0.00071917
H        1.08456897      -2.29781850      -3.54653895       0.00187834       0.00047646      -0.00119502
H       -1.87356165      -1.49706276      -3.64547393      -0.00095521      -0.00004041      -0.00355719
H        0.18549275       0.11677736      -5.15257622       0.00075237       0.00144356      -0.00308631
H        0.82087579       2.63139387      -3.36603695      -0.00039944       0.00152126       0.00015619
H       -0.69677506       2.27238795      -1.11138058       0.00018331      -0.00092705       0.00070344
H        2.31291341      -1.21210389      -0.98644936      -0.00310526       0.00041360      -0.00144782
H       -0.62702122      -2.51720717      -1.14498854      -0.00118028      -0.00075125      -0.00418932
H       -2.53860888       0.07531214      -1.12336249       0.00043353      -0.00104427      -0.00011960
H       -1.99487512       1.60395006      -3.47570731      -0.00164047       0.00197187      -0.00053070
