45
Properties=species:S:1:pos:R:3:forces:R:3 charge=-1 spin=1 energy=-242.22914123535156 free_energy=-242.22914123535156 stress="-4.261929831272937e-08 1.6427600613155846e-08 -3.442688267796257e-08 1.6427600613155846e-08 -1.0468501443483547e-07 2.8083826819624846e-08 -3.442688267796257e-08 2.8083826819624846e-08 -2.0559454583235492e-07" pbc="F F F"
C        0.51593765       1.34041275       1.55400000       0.04240224       0.23827243       0.26490018
B       -0.30970439       1.48758898       3.02218362      -0.00115824       0.00015799       0.00097802
B       -1.34001069       0.05700378       3.06578230      -0.00060910      -0.00202170       0.00124979
B       -0.26683420      -1.37049579       3.04418456       0.00186302       0.00006428       0.00247450
B        0.20856912       0.08913840       3.96468070       0.00527257       0.00042332      -0.00164864
B        1.36365896       0.96431569       3.02448193      -0.00143632       0.00049772       0.00656211
C        1.49148398       0.07953316       1.56400000       0.02003226      -0.12723997       0.12088899
B       -1.11289438       0.91995079       1.53595811       0.00146303      -0.00066668       0.00072220
B       -1.12173417      -0.87678272       1.55509211       0.00050431      -0.00225320       0.00190146
B        0.60616696      -1.35288537       1.48821409      -0.00031489       0.00038990      -0.00106937
B        1.39955530      -0.78418415       3.00721366      -0.00202961      -0.00051587       0.00390130
C        1.14300000       0.92400000      -1.55300000       0.11536222       0.04202858      -0.19222498
B        1.61352802       0.18997011      -2.99553303       0.00111058      -0.00308652      -0.00314828
B        0.67743528      -1.30327728      -3.03002601      -0.00286986      -0.00224508       0.00043608
B       -1.05076541      -0.85506866      -3.05873370       0.00004780       0.00107068      -0.00078627
B        0.13868798       0.13097305      -3.96124311      -0.00192678       0.00250105       0.00178467
B        0.49619068       1.53933369      -3.02739397      -0.00276268      -0.00143512      -0.00408002
C       -0.40000000       1.32300000      -1.56800000      -0.20931655       0.23103611      -0.25488928
B        1.35428784      -0.73831925      -1.49514039      -0.00260690      -0.00247863       0.00091402
B       -0.30398292      -1.43371814      -1.54120360      -0.00248536      -0.00006771      -0.00105540
B       -1.41091749      -0.02981989      -1.52120144      -0.00010869      -0.00076201      -0.00015832
B       -1.13779572       0.90824153      -3.03397251       0.00226818      -0.00047547      -0.00231116
Co       0.00000000       0.00000000       0.00000000       0.03259184      -0.36960143       0.05096471
H        0.86479306       2.26392533       1.08004367      -0.00122967       0.00650033       0.00193726
H       -0.57652622       2.57283919       3.43667071      -0.00163820      -0.00006413      -0.00300278
H       -2.38784148       0.05806007       3.63725310      -0.00188033      -0.00082488      -0.00164350
H       -0.55071267      -2.39276544       3.59180119       0.00217176      -0.00004517       0.00047524
H        0.22572051       0.08815696       5.15445442      -0.00192536       0.00164528      -0.00376220
H        2.27358423       1.65417669       3.34987216      -0.00253132      -0.00043057      -0.00016743
H        2.45868336       0.15283062       1.05899918       0.00389645       0.00435930      -0.00137286
H       -1.92035065       1.66328335       1.05992625      -0.00162862      -0.00045845      -0.00015386
H       -2.03272466      -1.55382395       1.17678068       0.00154628      -0.00148948      -0.00176955
H        1.10543425      -2.33354391       1.02371056      -0.00194109      -0.00118448       0.00087625
H        2.36087542      -1.36622894       3.40418470      -0.00173920       0.00285634       0.00135356
H        1.85348837       1.60119065      -1.06837215       0.00465867       0.00144490      -0.00204852
H        2.72547486       0.34214704      -3.39622821       0.00278464      -0.00210638       0.00254019
H        1.08801832      -2.28045388      -3.57853440       0.00017317      -0.00233454       0.00410256
H       -1.87242693      -1.51255987      -3.62272203      -0.00047788       0.00133026       0.00158172
H        0.15526762       0.13530038      -5.15097875       0.00188034      -0.00341242       0.00321853
H        0.78529876       2.64281531      -3.35708391       0.00075703      -0.00458634      -0.00128883
H       -0.70998359       2.26058989      -1.09492569      -0.00083514       0.00003592       0.00408278
H        2.33131873      -1.19720662      -0.98328889       0.00025292      -0.00400890      -0.00157272
H       -0.57976668      -2.52720186      -1.14360325      -0.00115339       0.00251870       0.00221593
H       -2.52088936       0.06388743      -1.08670607      -0.00049994      -0.00106001      -0.00059731
H       -2.02762320       1.58299218      -3.45081705       0.00406632      -0.00227772      -0.00131015
