45
Properties=species:S:1:pos:R:3:forces:R:3 charge=-1 spin=1 energy=-54314.536574380574 free_energy=-54314.536574380574 stress="1.0019315481185913 -0.0067010005004704 0.2213047295808792 -0.0067010005004704 1.125095248222351 -1.4988515377044678 0.2213047295808792 -1.4988515377044678 1.8434076309204102" pbc="F F F"
C        1.43424178      -0.07647554       1.55400000      -0.25971141      -0.01884938      -0.00156679
B        1.31356416       0.77086461       3.01608021       0.00086539       0.00027875       0.00047759
B       -0.37697857       1.29730163       3.09044515       0.00360301       0.00159906       0.00494044
B       -1.39490648      -0.15427457       3.06102241       0.00076620       0.00266969      -0.00238789
B        0.14692924      -0.16098275       3.97112762      -0.00069173       0.00283107      -0.00125008
B        1.35514165      -0.99538903       2.96878033      -0.00162845       0.00313790       0.00330813
C        0.53653443      -1.39390846       1.56400000      -0.21288435       0.59577298      -0.56644660
B        0.49862104       1.34404638       1.55029545      -0.00202108       0.00134887       0.00078491
B       -1.19998752       0.80601125       1.57175869       0.00035759      -0.00327633       0.00859480
B       -1.12099679      -0.97967196       1.49480768       0.00385260      -0.00474300       0.00218557
B       -0.32875848      -1.55885114       2.99243354       0.00334466       0.00231823       0.00475520
C        1.14300000       0.92400000      -1.55300000      -0.40765586      -0.25765246       0.21011044
B        1.61818654       0.17183754      -2.98681072       0.00081772       0.00079681       0.00122892
B        0.65821325      -1.31430089      -3.05852774       0.00268724       0.00027430      -0.00424925
B       -1.05492247      -0.85965816      -3.08417192       0.00280432      -0.00238099       0.00244164
B        0.14492523       0.12775359      -3.97263396       0.00013044      -0.00337651       0.00178910
B        0.51092863       1.55124029      -2.97496876       0.00093868      -0.00396780      -0.00389867
C       -0.40000000       1.32300000      -1.56800000       0.05515500      -0.02906885       0.37922901
B        1.31468315      -0.76063280      -1.50603026      -0.00055341      -0.00390560       0.00049224
B       -0.32735859      -1.44409525      -1.56453412      -0.00094892       0.00437815      -0.00515764
B       -1.42516671      -0.03798064      -1.53940162      -0.00221168       0.00319813      -0.00797956
B       -1.13811942       0.90186041      -3.02805852       0.00420626       0.00030244      -0.00369443
Co       0.00000000       0.00000000       0.00000000       0.78948468      -0.30015039      -0.02650208
H        2.39324806      -0.15305718       1.06743680      -0.00460425       0.00414717       0.00344946
H        2.26675584       1.34192793       3.42497502       0.00268712      -0.00154315      -0.00171918
H       -0.67527059       2.29488986       3.65660159       0.00351469       0.00385790      -0.00079978
H       -2.43948742      -0.22769668       3.61635599       0.00391468       0.00507927      -0.00078370
H        0.20449494      -0.21818148       5.15444351       0.00150365       0.00177523      -0.00479083
H        2.28399799      -1.64825254       3.29786933      -0.00298497       0.00112210      -0.00280690
H        0.92287143      -2.25574524       1.04581925      -0.00077474      -0.00178412      -0.00281381
H        0.95036013       2.34991395       1.09658230       0.00478308      -0.00042795      -0.00149924
H       -2.12162564       1.45520349       1.19269365       0.00101223       0.00580772      -0.00151055
H       -1.90771183      -1.73914082       1.04103640      -0.00396085       0.00218036      -0.00088762
H       -0.55622859      -2.65066219       3.38818301      -0.00189926       0.00318837      -0.00161146
H        1.80999979       1.60351866      -1.04793432      -0.00099765      -0.00455003      -0.00222388
H        2.72508742       0.33822779      -3.37284442       0.00056208       0.00267116       0.00108205
H        1.08584698      -2.28027378      -3.59589958       0.00468500      -0.00097852       0.00100150
H       -1.88572530      -1.48199753      -3.65631341       0.00597240      -0.00085391       0.00218556
H        0.17897270       0.19802380      -5.15614372       0.00120395      -0.00075869       0.00520785
H        0.79263599       2.65126235      -3.30296994      -0.00193961      -0.00304962       0.00237082
H       -0.67105379       2.25139590      -1.09147605      -0.00189077       0.00046125       0.00213813
H        2.28834405      -1.24420164      -1.01721704       0.00343547       0.00312360       0.00106694
H       -0.61732947      -2.52924926      -1.17424248       0.00468845      -0.00339692       0.00183511
H       -2.52711693       0.05073391      -1.11595334      -0.00005734      -0.00353488       0.00155964
H       -1.99774133       1.59864597      -3.44729110       0.00044051      -0.00407149       0.00234521
