45
Properties=species:S:1:pos:R:3:forces:R:3 charge=-1 spin=1 energy=-242.31097412109375 free_energy=-242.31097412109375 stress="-6.813524322524245e-08 2.320769176833437e-08 -4.4290882073028115e-08 2.320769176833437e-08 -8.411821994513957e-08 1.009551908737194e-07 -4.4290882073028115e-08 1.009551908737194e-07 -1.6461670782064175e-07" pbc="F F F"
C        1.25556331      -0.69746598       1.55400000       0.19328634      -0.03188714       0.30693036
B        1.51816301       0.08683061       3.03351923       0.00189087      -0.00058011       0.00017098
B        0.23431478       1.30358383       3.08936507       0.00059865       0.00144705       0.00017819
B       -1.32060351       0.43104541       3.06428739      -0.00072512       0.00124698      -0.00050953
B        0.06811468      -0.24715025       3.97734680      -0.00108863      -0.00008221      -0.00059568
B        0.77611101      -1.50114914       3.02604548      -0.00164693      -0.00069001      -0.00033031
C       -0.12881530      -1.48803784       1.56400000      -0.06024897      -0.07481393       0.00061268
B        1.05071394       0.97516532       1.55368135       0.00308639       0.00197789      -0.00102177
B       -0.72020346       1.23278677       1.59497764       0.00258331      -0.00271851       0.00124092
B       -1.41720444      -0.42029281       1.49464732      -0.00673249      -0.00142565      -0.00596075
B       -0.95972833      -1.30021256       3.01830793      -0.00018424       0.00008370      -0.00100701
C        1.14300000       0.92400000      -1.55300000       0.11258761       0.00635880      -0.16645251
B        1.62053222       0.19966636      -3.00121462       0.00164016       0.00229402       0.00040375
B        0.67381016      -1.29340065      -3.05024359       0.00105362      -0.00048381      -0.00062365
B       -1.04809547      -0.83308827      -3.08568197      -0.00117169      -0.00024644       0.00023551
B        0.15475500       0.15669196      -3.97481733      -0.00113906       0.00169742       0.00009836
B        0.51278466       1.55555608      -3.03005826      -0.00144096       0.00134546       0.00095633
C       -0.40000000       1.32300000      -1.56800000      -0.15474199       0.30454293      -0.20349218
B        1.33646910      -0.74366832      -1.50391853       0.00387493      -0.00070018       0.00033735
B       -0.31045347      -1.43632786      -1.58490793       0.00099967       0.00152236      -0.00162508
B       -1.40740235      -0.01799713      -1.54203376      -0.00709480      -0.00015876       0.00594972
B       -1.12217936       0.93318616      -3.05208056      -0.00050168       0.00112154       0.00124889
Co       0.00000000       0.00000000       0.00000000      -0.07362856      -0.21677515       0.06517962
H        2.11553649      -1.16231162       1.06576230       0.00155651      -0.00110933      -0.00056863
H        2.63270532       0.20859986       3.43844279      -0.00192147      -0.00179710       0.00110781
H        0.38022973       2.33569115       3.67033353       0.00114156       0.00059746       0.00019546
H       -2.29704828       0.83456036       3.61999353      -0.00003827       0.00302690      -0.00243223
H        0.07167774      -0.27004585       5.16746677      -0.00318857       0.00061952       0.00084095
H        1.33859782      -2.49958834       3.33671614      -0.00224403      -0.00024122       0.00108854
H       -0.18393265      -2.44465308       1.03750832      -0.00045965       0.00546815       0.00267940
H        1.91212022       1.68674165       1.12547368      -0.00124675      -0.00304643       0.00034934
H       -1.26552168       2.20898550       1.16698585      -0.00022256       0.00353682      -0.00132784
H       -2.46431161      -0.77586057       1.04228177       0.00439670       0.00230823       0.00363647
H       -1.66582116      -2.17924939       3.40556762      -0.00233728       0.00248510      -0.00118862
H        1.84691249       1.58812053      -1.04490409      -0.00054869      -0.00019737       0.00018839
H        2.74013190       0.34168326      -3.38442720      -0.00279823       0.00171767      -0.00172918
H        1.08624067      -2.26739086      -3.60224585       0.00076958       0.00041491      -0.00143377
H       -1.87488922      -1.47332436      -3.66134524       0.00048053      -0.00194855       0.00176133
H        0.18191343       0.16430757      -5.16478105      -0.00319797       0.00049483      -0.00134157
H        0.81010238       2.66092030      -3.34548829      -0.00251265      -0.00005603      -0.00009005
H       -0.70478319       2.25229037      -1.07623191      -0.00039950      -0.00247406      -0.00085545
H        2.33207550      -1.21595289      -1.04064883      -0.00305917       0.00362044       0.00061513
H       -0.60587016      -2.51039760      -1.14855337       0.00098685      -0.00333486      -0.00067877
H       -2.52497327       0.07334528      -1.12772677       0.00544527      -0.00138491      -0.00417695
H       -2.00687072       1.61668851      -3.46591210      -0.00185873      -0.00177644       0.00143626
