45
Properties=species:S:1:pos:R:3:forces:R:3 charge=-1 spin=1 energy=-242.2725830078125 free_energy=-242.2725830078125 stress="-4.622217986138821e-08 1.2195926935021362e-08 -4.095197070341783e-08 1.2195926935021362e-08 -1.046370954327358e-07 3.6446941464873817e-08 -4.095197070341783e-08 3.6446941464873817e-08 -2.1460681409735116e-07" pbc="F F F"
C        0.90489618       1.11537478       1.55400000       0.10969049       0.19551957       0.29209602
B        0.16633112       1.50955281       3.02507217       0.00160147       0.00046994       0.00267189
B       -1.25377372       0.46276751       3.07182141      -0.00024764       0.00050952       0.00370159
B       -0.67043629      -1.22390314       3.04889115       0.00211333       0.00135475       0.00046300
B        0.23363296       0.01924848       3.96832267      -0.00161334      -0.00058498      -0.00170336
B        1.59849091       0.49800317       3.02568359      -0.00177746      -0.00201080       0.00455560
C        1.44306266      -0.38525337       1.56400000       0.00582266      -0.11426371       0.11633055
B       -0.77312257       1.21577809       1.54105143      -0.00009953      -0.00004539      -0.00020956
B       -1.33775801      -0.48975899       1.56428610      -0.00326678       0.00000563       0.00030336
B        0.15943285      -1.47004492       1.48243963      -0.00853568      -0.00225806      -0.00254124
B        1.09565911      -1.17673260       3.00996142      -0.00191658       0.00269250       0.00382505
C        1.14300000       0.92400000      -1.55300000       0.09287156       0.02788338      -0.22294319
B        1.61214702       0.19497814      -3.00094486      -0.00015978       0.00193051      -0.00431314
B        0.67117629      -1.29660913      -3.04283408       0.00089069      -0.00009331      -0.00406270
B       -1.05445379      -0.84459723      -3.06781734      -0.00007732       0.00193386       0.00067636
B        0.13685511       0.14426769      -3.96726144      -0.00194428      -0.00124785       0.00149336
B        0.49760263       1.54675276      -3.02720588      -0.00318928      -0.00121250      -0.00359538
C       -0.40000000       1.32300000      -1.56800000      -0.21051592       0.27545840      -0.23677993
B        1.35047192      -0.73755500      -1.50579800      -0.00204831      -0.00296682      -0.00075538
B       -0.30467656      -1.43370270      -1.55690179       0.00004840      -0.00466147      -0.00087395
B       -1.40690837      -0.02950570      -1.51834328      -0.00108621      -0.00763726       0.00128706
B       -1.13717350       0.91836533      -3.03685232       0.00286078      -0.00014463      -0.00116310
Co       0.00000000       0.00000000       0.00000000       0.01534611      -0.37793273       0.05168199
H        1.52393150       1.88500257       1.08281272       0.00308447       0.00293142       0.00457586
H        0.24490927       2.62513078       3.43703640      -0.00041713      -0.00010541      -0.00085178
H       -2.24918575       0.78372763       3.64654294      -0.00229162       0.00358393      -0.00262271
H       -1.24680313      -2.11380124       3.59803661      -0.00236198       0.00429843      -0.00392027
H        0.25241264       0.01500136       5.15814738      -0.00304246       0.00013451      -0.00388268
H        2.67738053       0.87516277       3.34740121      -0.00437221      -0.00160277       0.00027251
H        2.38489417      -0.61187875       1.05890825       0.00451669       0.00253160       0.00223912
H       -1.31543415       2.17548723       1.07545334      -0.00565444       0.00265347       0.00448746
H       -2.40704183      -0.84763680       1.16461878       0.00205337       0.00014238      -0.00004629
H        0.32325863      -2.56372017       1.03092743       0.00171101       0.00169428      -0.00084109
H        1.83414667      -2.02545171       3.40371536      -0.00574897       0.00110379      -0.00015777
H        1.85242375       1.60161719      -1.06894782       0.00190005       0.00396239      -0.00461038
H        2.72537405       0.34535713      -3.39833054       0.00036865      -0.00030017       0.00030375
H        1.07820847      -2.27233670      -3.59602387       0.00326088      -0.00214908       0.00269956
H       -1.88166762      -1.49294129      -3.63421067       0.00303823      -0.00210413       0.00426177
H        0.15494335       0.15334854      -5.15703386      -0.00055834      -0.00306284       0.00312303
H        0.78942165       2.65113645      -3.35121787      -0.00182962      -0.00424117      -0.00054428
H       -0.70979338       2.25605114      -1.08753895       0.00293414       0.00520621      -0.00151290
H        2.33728409      -1.20623156      -1.02237979       0.00426028      -0.00567901      -0.00457411
H       -0.58147763      -2.52267286      -1.14955885       0.00043496       0.00142207       0.00141076
H       -2.51919994       0.05331996      -1.08681698       0.00299608       0.00280241      -0.00091840
H       -2.02564302       1.59763715      -3.44937582       0.00095101      -0.00592069       0.00096415
