45
Properties=species:S:1:pos:R:3:forces:R:3 charge=-1 spin=1 energy=-242.26705932617188 free_energy=-242.26705932617188 stress="-5.2800789518414604e-08 2.1916891412843142e-08 -6.457555823402572e-09 2.1916891412843142e-08 -9.247707311033082e-08 1.1444538472460408e-07 -6.457555823402572e-09 1.1444538472460408e-07 -1.1917835252006626e-07" pbc="F F F"
C        0.27277060      -1.41013978       1.55400000       0.07622588      -0.20449758       0.22817197
B        1.03427278      -1.11598352       3.03984171       0.00028662      -0.00092703      -0.00116025
B        1.13896489       0.65074186       3.09949166       0.00174949      -0.00008576      -0.00076658
B       -0.52785023       1.28409954       3.07209095       0.00029201       0.00060923      -0.00094149
B       -0.15531842      -0.22298461       3.98061528       0.00004204       0.00050746      -0.00011330
B       -0.65597531      -1.56817588       3.02220857      -0.00018720       0.00063003      -0.00061601
C       -1.22270400      -0.85781404       1.56400000      -0.09625825       0.02176496      -0.01244470
B        1.41629865      -0.17918821       1.55321309       0.00609767       0.00004229       0.00015497
B        0.47199664       1.34453907       1.60712784       0.00145213       0.00020993      -0.00190006
B       -1.24168810       0.82277558       1.51376543       0.00412440      -0.00495162      -0.00015126
B       -1.62078903      -0.10596251       3.01510645      -0.00053887      -0.00035089      -0.00077065
C        1.14300000       0.92400000      -1.55300000       0.12218417       0.04226115      -0.08925037
B        1.62024504       0.19913177      -2.99999386       0.00046566       0.00110718       0.00063174
B        0.67265821      -1.29430510      -3.04120778       0.00133106      -0.00064842       0.00019271
B       -1.05123254      -0.83723278      -3.07965669      -0.00023666      -0.00049219       0.00057992
B        0.15481323       0.15206327      -3.97040741      -0.00017694       0.00048997       0.00004452
B        0.51378742       1.55336939      -3.02988021      -0.00043056       0.00016500       0.00082942
C       -0.40000000       1.32300000      -1.56800000      -0.16328374       0.24316373      -0.22353777
B        1.33435458      -0.73998047      -1.48557421       0.00517315      -0.00316331      -0.00035477
B       -0.31814855      -1.43459532      -1.57785629       0.00041919      -0.00257960       0.00179391
B       -1.41877795      -0.02163032      -1.55359315       0.00578803       0.00161985      -0.00003034
B       -1.12501665       0.93044549      -3.04684761      -0.00029312       0.00090975       0.00045265
Co       0.00000000       0.00000000       0.00000000       0.06473689      -0.11173767       0.10118365
H        0.47293335      -2.35960964       1.04820347      -0.00209665       0.00471383       0.00018068
H        1.84619783      -1.89059676       3.44242114      -0.00100195      -0.00008209       0.00028543
H        2.02417096       1.19875042       3.68374117      -0.00071955      -0.00050311      -0.00054368
H       -0.84206628       2.28746758       3.63730474       0.00068276       0.00033717      -0.00229990
H       -0.17648827      -0.24261980       5.17083239      -0.00050255       0.00116697      -0.00082296
H       -1.06078257      -2.64274778       3.32448529      -0.00103574       0.00094691       0.00018662
H       -1.99005373      -1.43110241       1.03504428       0.00420684       0.00139964       0.00236295
H        2.52222896      -0.38340205       1.15026895      -0.00458278       0.00100656      -0.00867359
H        0.88208072       2.39172542       1.19429751      -0.00318247      -0.00064712      -0.00078791
H       -2.17162697       1.39152712       1.02468135      -0.00705325       0.00110950       0.00087769
H       -2.74870848      -0.13537289       3.40038581       0.00028244       0.00176639      -0.00083642
H        1.84426121       1.58544862      -1.03506943      -0.00161812      -0.00374981      -0.00424039
H        2.74107998       0.33582380      -3.38202684      -0.00067580       0.00181493      -0.00031927
H        1.08842776      -2.27004210      -3.58885245      -0.00015675       0.00150014      -0.00034948
H       -1.87154870      -1.48120989      -3.66038762       0.00053564      -0.00004918       0.00178301
H        0.17865568       0.15629964      -5.16069015      -0.00105158       0.00050962       0.00053875
H        0.81085122       2.65850481      -3.34635718      -0.00164666       0.00026932       0.00074019
H       -0.70307511       2.25561202      -1.08073615       0.00202084      -0.00429919      -0.00139685
H        2.33179023      -1.20996215      -1.02783069      -0.00477687       0.00238279       0.00712517
H       -0.60178371      -2.51406804      -1.14368518      -0.00027612       0.00439407       0.00351489
H       -2.52268362       0.06750770      -1.10390732      -0.00544484       0.00306858      -0.00023449
H       -2.00736800       1.61503274      -3.46404499      -0.00086989      -0.00110257       0.00091110
