45
Properties=species:S:1:pos:R:3:forces:R:3 charge=-1 spin=1 energy=-54314.42433072823 free_energy=-54314.42433072823 stress="-0.08948840945959091 0.1901663988828659 0.32948967814445496 0.1901663988828659 -0.18095853924751282 0.2891828715801239 0.32948967814445496 0.2891828715801239 0.3166789710521698" pbc="F F F"
C       -1.42315692      -0.28333752       1.49985120       0.00017232       0.02835703       0.02152393
B       -1.16111065      -1.05411018       2.97525578       0.00791022      -0.00322489       0.01438709
B        0.59570862      -1.14393838       3.12575365      -0.00440302      -0.00470302      -0.00676107
B        1.22434213       0.51172715       3.12757740      -0.00973449      -0.01388402       0.01461620
B       -0.30751687       0.14278927       3.96880909      -0.01055055       0.02599753      -0.00346530
B       -1.63005159       0.64727946       2.89878433      -0.00686716      -0.02353823       0.01563787
C       -0.86349619       1.19596500       1.50572675      -0.00762345      -0.03363677      -0.02355722
B       -0.16862698      -1.42716408       1.53426098       0.01241709      -0.00909616       0.01328508
B        1.32453890      -0.47085105       1.63600000       0.14012152      -0.12840572      -0.20733051
B        0.82217974       1.22519657       1.55005124       0.01875412       0.01465679      -0.02728326
B       -0.14720004       1.60946130       2.98442627      -0.01039380      -0.01042635       0.04285442
C        0.99107489       1.01980896      -1.52991535      -0.02457145       0.01575791      -0.02730041
B        1.52444556       0.35436975      -2.98452686      -0.00240852      -0.00012680      -0.00879340
B        0.69071089      -1.19691527      -3.10044138       0.00672908       0.00134266       0.00860278
B       -1.05127108      -0.87541514      -3.12474187       0.02209035      -0.00110409      -0.01688354
B        0.06568581       0.21939374      -3.98710028      -0.01279318       0.02317117       0.00466195
B        0.31268335       1.64052942      -2.95389813       0.03170513      -0.00728348      -0.00900061
C       -0.56347017       1.30840009      -1.55734910       0.03370606      -0.00958289       0.02264404
B        1.31501606      -0.64646510      -1.51575610       0.00120403      -0.02041684      -0.00896009
B       -0.27500000      -1.43300000      -1.61500000       0.06041658      -0.09004127       0.27386916
B       -1.46088735      -0.11880485      -1.56984732      -0.02346032      -0.00841936       0.03235290
B       -1.27835071       0.86945028      -3.02993128       0.01840313       0.00601200      -0.04424816
Co       0.00000000       0.00000000       0.00000000      -0.27134717       0.28509837      -0.09322990
H       -2.35380140      -0.44884675       0.98681953      -0.00172352      -0.02529521      -0.00346564
H       -1.96050129      -1.84258449       3.34853284       0.00789905      -0.00015141       0.00203128
H        1.11182046      -2.03483327       3.71075116       0.00022846       0.00445503       0.00536114
H        2.20258116       0.83487195       3.71287604      -0.00421089       0.00437980       0.00366385
H       -0.43176716       0.19289458       5.14752104      -0.00224097      -0.00746978      -0.01119121
H       -2.70561949       1.06422572       3.15885074      -0.00035705      -0.01111869       0.00373018
H       -1.45157910       1.95027492       1.00847686      -0.02302670      -0.01764494      -0.01767438
H       -0.34469130      -2.51996329       1.11675028       0.01826095      -0.01977018       0.02227199
H        2.39591644      -0.87595283       1.32832943       0.00584445       0.01415792       0.01006158
H        1.42220370       2.14899630       1.10038337      -0.04071556       0.00228434       0.01211287
H       -0.22263710       2.73265821       3.35131872      -0.00792436       0.00474032       0.01270096
H        1.61237883       1.74489955      -1.03449150       0.02090979      -0.01085172       0.00918110
H        2.61559769       0.61803820      -3.35836114      -0.00107729      -0.00689226       0.00138032
H        1.18947531      -2.11527793      -3.65742808      -0.00176198       0.00294403      -0.00358072
H       -1.83232254      -1.55869665      -3.69673303       0.00107746       0.00689112      -0.00485932
H        0.09554898       0.31921545      -5.16888463       0.01204862       0.00024281       0.01295418
H        0.51624162       2.76855649      -3.24485641       0.01109659      -0.00738856      -0.00021911
H       -0.90786007       2.21646391      -1.08949530       0.02556069       0.01092840       0.01948441
H        2.33803856      -1.05135391      -1.08056025       0.00750484      -0.02716630      -0.01646517
H       -0.48654205      -2.54914383      -1.27606946      -0.01648182      -0.00125318      -0.01177771
H       -2.56583210      -0.13976949      -1.12932842       0.01806647       0.03690488      -0.01931243
H       -2.19726522       1.50601305      -3.42003349       0.00154644       0.01056984      -0.01400999
