45
Properties=species:S:1:pos:R:3:forces:R:3 charge=-1 spin=1 energy=-54314.48814298409 free_energy=-54314.48814298409 stress="0.9081372618675232 -0.27275052666664124 0.3058386743068695 -0.27275052666664124 1.088820457458496 -1.1465568542480469 0.3058386743068695 -1.1465568542480469 1.454405665397644" pbc="F F F"
C        1.41880032       0.22339127       1.55400000      -0.07351740      -0.16680717      -0.07502542
B        1.14355457       1.03085151       3.01395995       0.00084686       0.00314278       0.00133912
B       -0.61573876       1.21066632       3.09192299       0.00345678       0.00329910       0.00483555
B       -1.32204860      -0.41443773       3.06822758       0.00021908      -0.00004450       0.00203061
B        0.19083210      -0.11307679       3.97335892      -0.00003423       0.00020925       0.00231365
B        1.53690566      -0.69264725       2.96808798      -0.00001054       0.00140958      -0.00007430
C        0.81461973      -1.25189644       1.56400000      -0.48184881       0.59335589      -0.42575496
B        0.22634004       1.42632100       1.54790433       0.00334009      -0.00030051       0.00180797
B       -1.33015634       0.56118487       1.57601103      -0.00567672       0.00058417       0.00216386
B       -0.89625688      -1.17380685       1.50394189      -0.00490346       0.00018138      -0.00125841
B        0.00170161      -1.58021374       2.99797916      -0.00076928       0.00177629       0.00117661
C        1.14300000       0.92400000      -1.55300000      -0.38884124      -0.07120338       0.24388868
B        1.63067868       0.18372031      -2.98607065       0.00200199      -0.00090316      -0.00012294
B        0.68583596      -1.30980311      -3.05851897       0.00433043       0.00094321      -0.00426680
B       -1.03025650      -0.86929574      -3.08705567       0.00049247      -0.00072771      -0.00216106
B        0.16045626       0.12792838      -3.97348331      -0.00052451       0.00043868      -0.00235283
B        0.51114280       1.55375090      -2.97494006       0.00041087      -0.00035464      -0.00034234
C       -0.40000000       1.32300000      -1.56800000       0.01332326      -0.17335327       0.26734906
B        1.33190445      -0.75078791      -1.50414662       0.00246015       0.00207313      -0.00094800
B       -0.30280275      -1.44952157      -1.56611452      -0.00280813      -0.00598173      -0.00098853
B       -1.41365075      -0.05196578      -1.54392867      -0.00097466      -0.00396188      -0.00045195
B       -1.13086948       0.89162031      -3.03086023       0.00065644      -0.00035524      -0.00216537
Co       0.00000000       0.00000000       0.00000000       0.89378220      -0.20687056      -0.01160040
H        2.37455154       0.33967303       1.06728003       0.00203303       0.00363118      -0.00495268
H        1.96707666       1.78080357       3.41549641       0.00521055      -0.00077526      -0.00146699
H       -1.10734190       2.12884812       3.65696743       0.00179795       0.00693287       0.00312369
H       -2.32971461      -0.69380385       3.62547219      -0.00062771       0.00351207       0.00268078
H        0.26168764      -0.15569886       5.15623195       0.00306743       0.00212938       0.00298973
H        2.58056466      -1.14216473       3.29359570      -0.00011477      -0.00008400      -0.00227182
H        1.36718499      -2.01960855       1.04942845      -0.00239700       0.00863153      -0.00101110
H        0.47467065       2.49790069       1.08705194       0.00334743      -0.00248566       0.00064039
H       -2.36600093       1.01489495       1.21131476       0.00581977       0.00105642       0.00159675
H       -1.52542943      -2.07402856       1.06399656      -0.00257238      -0.00210273      -0.00128562
H       -0.00525899      -2.69434930       3.39649223      -0.00036885       0.00102756       0.00096946
H        1.80580542       1.61035361      -1.05039142       0.00161941      -0.00051236       0.00472777
H        2.73773349       0.36175849      -3.36652170       0.00083990       0.00448244       0.00080513
H        1.12082154      -2.27308047      -3.59427789       0.00550128      -0.00231825      -0.00311263
H       -1.85465383      -1.49895939      -3.65955099       0.00158407      -0.00221634      -0.00220179
H        0.19539568       0.19839077      -5.15659976       0.00195026       0.00160037      -0.00309938
H        0.78839005       2.65551517      -3.30074154      -0.00070576       0.00048153       0.00216768
H       -0.67633402       2.25095755      -1.09457164       0.00296342      -0.00512956       0.00083775
H        2.31138532      -1.21649887      -1.00911417       0.00260512       0.00230380       0.00026584
H       -0.58159827      -2.54095836      -1.18961183       0.00458741       0.00404651      -0.00097118
H       -2.52020849       0.02021785      -1.13074065      -0.00071917      -0.00090836       0.00054845
H       -1.99708825       1.57832428      -3.45263089      -0.00083264       0.00014695      -0.00037176
