45
Properties=species:S:1:pos:R:3:forces:R:3 charge=-1 spin=1 energy=-54314.484074609456 free_energy=-54314.484074609456 stress="1.0106583833694458 0.44468197226524353 -0.8603326678276062 0.44468197226524353 0.40381959080696106 -0.5500998497009277 -0.8603326678276062 -0.5500998497009277 0.42647960782051086" pbc="F F F"
C       -0.37300000      -1.38700000       1.55400000      -0.00030180       0.25431225      -0.12894693
B        0.46695681      -1.44748538       3.02010335       0.00811723      -0.00333315      -0.00588552
B        1.32327103       0.09703780       3.11090762      -0.00369172       0.02064809       0.01382119
B        0.10965972       1.38540233       3.10364980      -0.01306901       0.01555721      -0.01413866
B       -0.21174799      -0.13109928       3.98897622      -0.00471473      -0.01016509       0.01161379
B       -1.26732932      -1.13233157       2.96601611      -0.01232670      -0.00511659      -0.00247088
C       -1.47500000      -0.23500000       1.56400000       0.39352465      -0.00321504      -0.32060692
B        1.20345646      -0.76261906       1.55560541       0.00691385       0.01681809       0.00148418
B        1.00983793       1.00854684       1.60635964      -0.01511915       0.00911461      -0.01624423
B       -0.74876809       1.29405631       1.54548181      -0.01248874      -0.02506473      -0.02211200
B       -1.48299314       0.62644455       3.01584368      -0.00336458       0.00262311       0.01090796
C        1.14300000       0.92400000      -1.55300000      -0.43690756      -0.30708593       0.33471149
B        1.60444793       0.15913504      -2.97970546       0.01246837      -0.00087839       0.00484121
B        0.64084866      -1.31990912      -3.04360320      -0.01580444      -0.00391250      -0.02127380
B       -1.06655268      -0.85568390      -3.09249854      -0.01898684       0.00797451       0.01304303
B        0.13923150       0.11831617      -3.97309155       0.01224879       0.01185876      -0.01415764
B        0.51005169       1.54490624      -2.97832717      -0.00190055       0.01377068       0.00260763
C       -0.40000000       1.32300000      -1.56800000       0.05698409       0.11640223       0.03886903
B        1.30749553      -0.76270473      -1.48297578      -0.01248135      -0.01482485      -0.00161168
B       -0.34377736      -1.43240070      -1.56104756      -0.01350431       0.00806588       0.01103848
B       -1.43048535      -0.02101468      -1.56872066       0.01634512       0.02748695       0.01541300
B       -1.14023931       0.91056283      -3.04101470      -0.00163049      -0.00205759      -0.00983606
Co       0.00000000       0.00000000       0.00000000      -0.01548997      -0.09938823       0.12560585
H       -0.63342867      -2.30467785       1.05537834      -0.00105134      -0.00057584       0.00707920
H        0.84476128      -2.49770024       3.41031483      -0.01179099      -0.00584129       0.02073782
H        2.36242124       0.18168910       3.67257219       0.00464252      -0.00737680       0.01959982
H        0.25304762       2.42014503       3.66318936       0.00119802       0.00704529       0.01188076
H       -0.27771982      -0.19485107       5.17044924      -0.01537730       0.00472921       0.02201203
H       -2.09495194      -1.91589679       3.27474001      -0.01703682      -0.00678992       0.00738800
H       -2.40337882      -0.43877204       1.05666169       0.03574050       0.01132401       0.01278206
H        2.10582250      -1.41580776       1.16075407       0.01596588      -0.00558396       0.02514313
H        1.83162044       1.79189708       1.24395707       0.00543881      -0.00413241       0.01416636
H       -1.33255271       2.21996194       1.08275191       0.00623012       0.00054875      -0.01010997
H       -2.51090403       1.06013838       3.41042327      -0.01028519       0.00581448      -0.00046492
H        1.81381653       1.59399312      -1.04360069      -0.00355861      -0.00170090      -0.00855980
H        2.71517419       0.30216608      -3.35786300       0.00973435       0.01589176      -0.01869944
H        1.06382734      -2.29353017      -3.56818790       0.01819367      -0.00164978      -0.01908115
H       -1.90201554      -1.48062171      -3.65466216       0.00449400      -0.00611519      -0.01652432
H        0.18440462       0.17801957      -5.15558682      -0.00106845       0.01084217      -0.02546308
H        0.80240641       2.64053814      -3.30754527       0.00148935       0.01752419      -0.00734330
H       -0.66838057       2.25921825      -1.10546325       0.00539519      -0.03672091      -0.01160428
H        2.29237922      -1.24958784      -1.04733826       0.01621149      -0.01013149      -0.02452609
H       -0.65184068      -2.51606668      -1.17383148       0.00934097      -0.00794101      -0.02228073
H       -2.53201179       0.08027163      -1.13509686       0.00213560      -0.00868645       0.00078100
H       -1.99410591       1.61359400      -3.46274230      -0.00086194      -0.00006407      -0.00358571
