45
Properties=species:S:1:pos:R:3:forces:R:3 charge=-1 spin=1 energy=-54314.56618024605 free_energy=-54314.56618024605 stress="0.8318049311637878 0.602189838886261 -1.059748888015747 0.602189838886261 0.9622445106506348 -1.388278603553772 -1.059748888015747 -1.388278603553772 2.244285821914673" pbc="F F F"
C        0.32181761      -1.39976120       1.55400000      -0.01797956       0.37217167      -0.13657843
B        1.08853404      -1.04547155       3.02255130      -0.00016393       0.00289372      -0.00184917
B        1.10681993       0.72402134       3.11493527       0.00466655       0.00260572      -0.00795019
B       -0.57271475       1.28587865       3.09201680       0.00461700      -0.00408349       0.00315527
B       -0.14158614      -0.20397132       3.98471938       0.00676401       0.00251996      -0.00162858
B       -0.59098640      -1.58988322       2.96372307       0.00157480      -0.00089760      -0.00228782
C       -1.19202188      -0.89996324       1.56400000       0.28137895       0.21947768      -0.58576775
B        1.41538140      -0.09079973       1.56132865      -0.00376572       0.00616861       0.00000098
B        0.40653031       1.37390247       1.60098591       0.00539625      -0.00212209       0.00142078
B       -1.27443769       0.79486569       1.52764863      -0.00163630      -0.00018326       0.00090396
B       -1.61428935      -0.13743594       3.00312315       0.00032388      -0.00024384       0.00269100
C        1.14300000       0.92400000      -1.55300000      -0.38229874      -0.37495351       0.43887699
B        1.60956920       0.16247559      -2.98000185      -0.00285521      -0.00280716       0.00148411
B        0.63921340      -1.31541549      -3.05938073       0.00107796      -0.00436144       0.00881556
B       -1.06873134      -0.84814443      -3.10138163       0.00677335       0.00053655      -0.00220254
B        0.14237541       0.13184678      -3.97680070       0.00358517      -0.00529321       0.00133872
B        0.51286755       1.55203166      -2.97313219       0.00071577       0.00040878       0.00073085
C       -0.40000000       1.32300000      -1.56800000      -0.02168542       0.09607571       0.22723275
B        1.30035625      -0.76996685      -1.49297309      -0.00698153      -0.00368344       0.00134758
B       -0.34845526      -1.43048593      -1.57303216       0.00604247      -0.00316280      -0.00246346
B       -1.43227250      -0.02265945      -1.56817677      -0.00080242       0.00091258      -0.00202485
B       -1.13990966       0.91665882      -3.03968920       0.00073558      -0.00033244      -0.00286965
Co       0.00000000       0.00000000       0.00000000       0.09909246      -0.29959804       0.05596714
H        0.52552053      -2.33111401       1.05230799      -0.00107227       0.00090339       0.00070554
H        1.90981259      -1.79310347       3.43095975      -0.00363575       0.00074495      -0.00271534
H        1.97916460       1.28753836       3.68609661       0.00043825      -0.00351889      -0.00176106
H       -0.94103800       2.26383532       3.65224675       0.00467622      -0.00161130      -0.00196421
H       -0.18084848      -0.28988237       5.16703626       0.00076945       0.00041049      -0.00231887
H       -0.95497078      -2.66888349       3.27851556      -0.00034382      -0.00047207       0.00126775
H       -1.90839646      -1.51138872       1.03968798      -0.00137871       0.00086563       0.00271863
H        2.51731983      -0.21826137       1.14115559       0.00017381      -0.00237753       0.00006680
H        0.76197792       2.44750883       1.22028901       0.00284270      -0.00438042       0.00021361
H       -2.21442325       1.33785168       1.04856665       0.00497918       0.00004303       0.00155487
H       -2.72757536      -0.24259905       3.39061993      -0.00235835       0.00244777       0.00214703
H        1.81209396       1.59065059      -1.03516222      -0.00189477       0.00057361      -0.00040228
H        2.71842096       0.31496090      -3.36410084      -0.00450601       0.00181941       0.00253433
H        1.06570616      -2.28338137      -3.59421316       0.00140373       0.00408207       0.00242874
H       -1.90239631      -1.46667921      -3.67441549       0.00567145      -0.00030388       0.00275227
H        0.18728499       0.20324799      -5.15982392       0.00023732      -0.00036936       0.00180409
H        0.80482080       2.64948184      -3.29864489       0.00033149       0.00148445      -0.00171872
H       -0.66808121       2.25148005      -1.08938779      -0.00058492       0.00036212      -0.00287521
H        2.26805989      -1.27301300      -1.02680513       0.00262357       0.00134635       0.00000380
H       -0.65630082      -2.51177393      -1.17378433       0.00396835      -0.00060051       0.00106760
H       -2.52943333       0.06471812      -1.12565655       0.00515753      -0.00254786      -0.00180826
H       -1.99086077       1.62372645      -3.45981652      -0.00207396      -0.00095003      -0.00204406
