45
Properties=species:S:1:pos:R:3:forces:R:3 charge=-1 spin=1 energy=-242.2828369140625 free_energy=-242.2828369140625 stress="-4.953022880727076e-08 1.2558706075083137e-08 -4.6344027282430034e-08 1.2558706075083137e-08 -1.0081943457862508e-07 4.368734352055981e-08 -4.6344027282430034e-08 4.368734352055981e-08 -2.126329263774096e-07" pbc="F F F"
C        1.01652748       1.01467724       1.55400000       0.10684934       0.17617960       0.30327952
B        0.32524766       1.48336232       3.02600982      -0.00248078       0.00023599       0.00215353
B       -1.19578311       0.58838452       3.07619170      -0.00112431       0.00049208       0.00021337
B       -0.78959843      -1.14908098       3.05296746      -0.00056130       0.00118044      -0.00063063
B        0.23893260      -0.00522547       3.97086443      -0.00253738      -0.00070071      -0.00151098
B        1.64410199       0.32859345       3.02594229      -0.00107767      -0.00006080       0.00306490
C        1.39488747      -0.53398403       1.56400000       0.01211312      -0.10053268       0.11463796
B       -0.64342038       1.28609503       1.54392817      -0.00117757      -0.00082079      -0.00162640
B       -1.37979228      -0.35117735       1.56887636      -0.00315472       0.00326587       0.00411555
B        0.00778287      -1.47914663       1.48207625      -0.00375925       0.00550663      -0.00608429
B        0.97050512      -1.28402434       3.01241295      -0.00277246      -0.00048125       0.00348973
C        1.14300000       0.92400000      -1.55300000       0.08686736       0.00486130      -0.22924003
B        1.61307717       0.19645847      -3.00118680      -0.00067109      -0.00213731      -0.00269286
B        0.66998296      -1.29472501      -3.04677599       0.00039257      -0.00038506      -0.00031608
B       -1.05454316      -0.84010360      -3.07255687       0.00022015      -0.00037140       0.00111911
B        0.13922060       0.14802509      -3.96988040      -0.00166713      -0.00179406       0.00150491
B        0.49960488       1.54859900      -3.02764234      -0.00149469      -0.00058065      -0.00271275
C       -0.40000000       1.32300000      -1.56800000      -0.18968196       0.29320458      -0.24305698
B        1.34685206      -0.73941217      -1.50839396      -0.00200948      -0.00079015       0.00221467
B       -0.30793547      -1.43276666      -1.56224076       0.00394249      -0.00282773      -0.00511283
B       -1.40649148      -0.02655978      -1.51910314       0.00350314      -0.00245899       0.00417174
B       -1.13455685       0.92195684      -3.04008944      -0.00092030      -0.00190860      -0.00206618
Co       0.00000000       0.00000000       0.00000000       0.00161206      -0.37649688       0.05513148
H        1.71222194       1.71649298       1.08453934       0.00157497       0.00143731      -0.00285570
H        0.51926396       2.58531556       3.43612154      -0.00045147       0.00086859       0.00055508
H       -2.15112487       1.01224082       3.65221469      -0.00211519       0.00126068      -0.00326076
H       -1.45454409      -1.97405245       3.60306861      -0.00203311       0.00160210      -0.00345124
H        0.25904247      -0.00952114       5.16067145      -0.00335949      -0.00096641      -0.00291415
H        2.75674157       0.59183071       3.34519457      -0.00000957      -0.00063364       0.00141621
H        2.30846625      -0.85604422       1.05970072       0.00624952       0.00150813      -0.00426941
H       -1.09049584       2.29861703       1.08864869      -0.00179065       0.00056007       0.00247210
H       -2.47949686      -0.60297230       1.17226605      -0.00017356       0.00023794      -0.00174649
H        0.05959571      -2.58367756       1.03085078       0.00224905       0.00180924       0.00364564
H        1.61678181      -2.20511447       3.40504695      -0.00166616      -0.00162216      -0.00006256
H        1.85311077       1.60122507      -1.07000218       0.00173053       0.00146385       0.00356810
H        2.72752930       0.34557663      -3.39538974      -0.00017831       0.00008909      -0.00145715
H        1.07837049      -2.26958438      -3.60046492       0.00001127      -0.00144662       0.00272791
H       -1.88183706      -1.48668084      -3.64060178       0.00057840      -0.00223564       0.00410633
H        0.16037710       0.15805141      -5.15962739      -0.00267788      -0.00253753       0.00282085
H        0.79277805       2.65303312      -3.34938165      -0.00150710       0.00022057      -0.00122336
H       -0.70782788       2.25678896      -1.08849561       0.00324403       0.00578520       0.00288707
H        2.33461365      -1.21583712      -1.03373165       0.00018598       0.00046729      -0.00251306
H       -0.59225331      -2.51963711      -1.15578399      -0.00010406      -0.00002846      -0.00143626
H       -2.51983949       0.06079677      -1.09222128       0.00205400       0.00151417       0.00029286
H       -2.02259237       1.60160005      -3.45236857      -0.00222144      -0.00193346       0.00065154
