45
Properties=species:S:1:pos:R:3:forces:R:3 charge=-1 spin=1 energy=-242.2894744873047 free_energy=-242.2894744873047 stress="-5.1582055959897843e-08 8.05034794382209e-09 -5.2188635635275205e-08 8.05034794382209e-09 -9.09481343569496e-08 6.070616365150272e-08 -5.2188635635275205e-08 6.070616365150272e-08 -2.0927589616803743e-07" pbc="F F F"
C        1.30226342       0.60581184       1.55400000       0.12786290       0.14921305       0.30517727
B        0.81542241       1.28248986       3.02628534       0.00189707       0.00043742      -0.00296587
B       -0.92095238       0.96075976       3.08058515      -0.00061946       0.00215356      -0.00107702
B       -1.13121587      -0.81080251       3.05733530       0.00013271      -0.00212128      -0.00124142
B        0.22741411      -0.08791537       3.97251649       0.00108377      -0.00008307       0.00087570
B        1.66141724      -0.25407365       3.02623266       0.00075318      -0.00068552      -0.00257671
C        1.12813217      -0.97886047       1.56400000       0.00267068      -0.09451667       0.07981183
B       -0.17089422       1.42581937       1.54756148       0.00222627       0.00005600      -0.00105032
B       -1.42044356       0.14328834       1.57897088       0.00013217       0.00098813       0.00016358
B       -0.49612869      -1.38907354       1.47921626       0.00151125       0.00072455      -0.00009377
B        0.47712201      -1.53901713       3.01551815       0.00205000      -0.00008336      -0.00205186
C        1.14300000       0.92400000      -1.55300000       0.09228566      -0.01999292      -0.20725061
B        1.61664879       0.19619733      -2.99881596      -0.00017663       0.00273995       0.00213182
B        0.67287558      -1.29489519      -3.04714396       0.00108035      -0.00004274      -0.00062535
B       -1.05210338      -0.83703338      -3.07664698      -0.00219594       0.00059555       0.00071184
B        0.14420415       0.14928661      -3.97055849      -0.00016895       0.00183229      -0.00148951
B        0.50372841       1.55010846      -3.02866282       0.00027126       0.00125357       0.00241879
C       -0.40000000       1.32300000      -1.56800000      -0.15859428       0.31937724      -0.23503649
B        1.34156784      -0.74319071      -1.50656185      -0.00008976       0.00211207      -0.00038810
B       -0.30747188      -1.43676318      -1.57166676       0.00130693      -0.00044873      -0.00175133
B       -1.40383036      -0.02355109      -1.51926703       0.00064129       0.00057805      -0.00010829
B       -1.13076888       0.92463440      -3.04455975      -0.00090263       0.00225908       0.00229995
Co       0.00000000       0.00000000       0.00000000      -0.05487454      -0.36648312       0.06784123
H        2.19054968       1.02862567       1.07481996      -0.00454782      -0.00105140      -0.00122370
H        1.37463590       2.25238645       3.43489159      -0.00051944       0.00083959       0.00054282
H       -1.67139184       1.68612567       3.65893731      -0.00202774       0.00219733       0.00095946
H       -2.03756869      -1.36077783       3.60607643      -0.00149543       0.00038328       0.00131374
H        0.24464716      -0.09851599       5.16225684      -0.00043223       0.00114614       0.00296500
H        2.79765103      -0.38772804       3.34301205      -0.00060046       0.00058265       0.00091024
H        1.87545581      -1.58910905       1.05098204      -0.00478204       0.00521335       0.00191189
H       -0.25120543       2.53122775       1.09514813       0.00038494       0.00045194      -0.00079666
H       -2.54167603       0.27104842       1.18452526      -0.00096026       0.00043832      -0.00002705
H       -0.82494116      -2.45026409       1.04263255       0.00035845      -0.00005550      -0.00215419
H        0.76637958      -2.62814624       3.40352922      -0.00035344       0.00061515       0.00136004
H        1.85159054       1.59559015      -1.05921473      -0.00228396      -0.00437613       0.00025061
H        2.73286174       0.34329946      -3.38908027      -0.00141099       0.00115635      -0.00204392
H        1.08363853      -2.26939217      -3.59936372      -0.00018614      -0.00066276      -0.00397068
H       -1.87973777      -1.48358380      -3.64392025      -0.00176384      -0.00054917      -0.00126817
H        0.16773699       0.15616320      -5.16017507      -0.00162560       0.00152900      -0.00336374
H        0.79778093       2.65468086      -3.34902255      -0.00122405       0.00036731      -0.00025806
H       -0.70294513       2.25616606      -1.08284027       0.00481363      -0.00672287       0.00029285
H        2.32724694      -1.22067897      -1.02786082       0.00095502       0.00066784      -0.00141228
H       -0.60478876      -2.52567046      -1.18186181       0.00097025      -0.00149703       0.00136383
H       -2.51841120       0.06720319      -1.09773612       0.00016606      -0.00082416       0.00071013
H       -2.02024333       1.60278296      -3.45624060      -0.00171748       0.00028782       0.00021285
