45
Properties=species:S:1:pos:R:3:forces:R:3 charge=-1 spin=1 energy=-242.31192016601562 free_energy=-242.31192016601562 stress="-7.173928651127426e-08 2.2836852409113817e-08 -4.366305716985153e-08 2.2836852409113817e-08 -8.489364944352928e-08 1.0030833408336548e-07 -4.366305716985153e-08 1.0030833408336548e-07 -1.655795074384514e-07" pbc="F F F"
C        1.23045724      -0.74085963       1.55400000       0.19646177      -0.03964469       0.30150431
B        1.52035585       0.03356487       3.03357590      -0.00116527       0.00192256       0.00070192
B        0.27959472       1.29463250       3.08935574      -0.00007417      -0.00031683       0.00020147
B       -1.30509445       0.47671985       3.06377946       0.00314093       0.00129513       0.00406669
B        0.05966338      -0.24934512       3.97750619      -0.00185212      -0.00035805      -0.00126638
B        0.72329820      -1.52727165       3.02598733      -0.00014885      -0.00019779       0.00153592
C       -0.18066860      -1.48263578       1.56400000      -0.06114015      -0.06621099       0.00240123
B        1.08430059       0.93777468       1.55338117      -0.00311354       0.00113954       0.00227018
B       -0.67683461       1.25683750       1.59492082      -0.00009330       0.00320148       0.00036143
B       -1.43150071      -0.37058152       1.49559591       0.00515279       0.00069976      -0.00401993
B       -1.00427933      -1.26639191       3.01787834      -0.00206357       0.00440441       0.00463898
C        1.14300000       0.92400000      -1.55300000       0.11663934       0.00662118      -0.16240354
B        1.62057354       0.20005975      -3.00116905      -0.00081503      -0.00392452      -0.00192743
B        0.67388213      -1.29360547      -3.05026632      -0.00153165       0.00167391       0.00020411
B       -1.04859291      -0.83325206      -3.08503401       0.00472085       0.00128821      -0.00535548
B        0.15514398       0.15661526      -3.97500219      -0.00346627       0.00038795       0.00158723
B        0.51303104       1.55538751      -3.03004398      -0.00202461       0.00119175      -0.00146732
C       -0.40000000       1.32300000      -1.56800000      -0.15366295       0.30475402      -0.20083146
B        1.33662703      -0.74337199      -1.50326683      -0.00295636      -0.00303636      -0.00406645
B       -0.31052651      -1.43589340      -1.58444029       0.00011940      -0.00317457      -0.00349747
B       -1.40798737      -0.01809808      -1.54320305       0.00586611      -0.00065418       0.00521834
B       -1.12207694       0.93365755      -3.05144031      -0.00074973      -0.00473333      -0.00675022
Co       0.00000000       0.00000000       0.00000000      -0.06928501      -0.21109551       0.06473060
H        2.07381522      -1.23538629       1.06564462      -0.00210307       0.00158527      -0.00193410
H        2.63837822       0.11685001       3.43817165       0.00092453      -0.00212649       0.00223051
H        0.46139101       2.32103531       3.67039772       0.00098933      -0.00042380      -0.00076515
H       -2.26647352       0.91378809       3.62031543      -0.00003585       0.00323227      -0.00291876
H        0.06272850      -0.27250483       5.16780062      -0.00417450       0.00098284      -0.00340082
H        1.25077886      -2.54458649       3.33649987      -0.00169063      -0.00194633       0.00163567
H       -0.26892639      -2.43648731       1.03779419       0.00014406      -0.00280071      -0.00032008
H        1.96961291       1.61919063       1.12562145       0.00199406      -0.00138741      -0.00221404
H       -1.18789832       2.25179683       1.16698045       0.00083627      -0.00171959      -0.00028310
H       -2.48916135      -0.68931850       1.04234616      -0.00717280      -0.00277122       0.00175486
H       -1.74054044      -2.11997645       3.40578324      -0.00246958       0.00134057      -0.00173871
H        1.84704397       1.58802294      -1.04499315      -0.00148621      -0.00119043       0.00297780
H        2.74015847       0.34134069      -3.38409055       0.00086510       0.00302761      -0.00273094
H        1.08628223      -2.26777922      -3.60229374      -0.00040647       0.00350741       0.00078814
H       -1.87505480      -1.47310835      -3.66168747       0.00177801      -0.00138572       0.00321342
H        0.18244916       0.16427255      -5.16518888      -0.00433159       0.00025129       0.00413221
H        0.81035529       2.66061150      -3.34537416      -0.00183591       0.00315663      -0.00103486
H       -0.70453428       2.25228371      -1.07638861      -0.00057251      -0.00044848       0.00277483
H        2.33201646      -1.21638292      -1.04100571       0.00108823       0.00357626       0.00543071
H       -0.60611891      -2.51025682      -1.14837770      -0.00043196      -0.00030930      -0.00516365
H       -2.52423118       0.07345337      -1.12770663      -0.00784518       0.00100705      -0.00261446
H       -2.00660697       1.61676154      -3.46619936      -0.00202170      -0.00039141       0.00234407
