45
Properties=species:S:1:pos:R:3:forces:R:3 charge=-1 spin=1 energy=-54314.4972658326 free_energy=-54314.4972658326 stress="0.6544729471206665 0.41113805770874023 -0.5894849300384521 0.41113805770874023 1.1102111339569092 -1.2506353855133057 -0.5894849300384521 -1.2506353855133057 1.5552308559417725" pbc="F F F"
C        0.86332918      -1.14785048       1.55400000      -0.17222373       0.05188305      -0.19877546
B        1.44328966      -0.52739675       3.01562228       0.00113168      -0.00036593       0.00010560
B        0.76364848       1.10435454       3.11187647       0.00330858      -0.00139215      -0.00086726
B       -1.00031182       0.95058962       3.10098104       0.00243846      -0.00005517       0.00059468
B       -0.00980975      -0.24394833       3.98702760       0.00036662      -0.00140565       0.00122629
B        0.11576867      -1.69394226       2.96419655      -0.00015602      -0.00007345       0.00157491
C       -0.72291815      -1.30699631       1.56400000       0.22112179       0.56793463      -0.35964635
B        1.35146664       0.47626256       1.55626575       0.00065180      -0.00299677       0.00297775
B       -0.15286668       1.42481498       1.60523741       0.00043772       0.00098002      -0.00035956
B       -1.47006680       0.22250885       1.53955231      -0.00082712      -0.00179936       0.00076577
B       -1.39522069      -0.76889565       3.01493885       0.00149045      -0.00091251       0.00387130
C        1.14300000       0.92400000      -1.55300000      -0.32497054      -0.09084377       0.47228771
B        1.63496349       0.17624281      -2.97642889       0.00115487       0.00054450      -0.00053893
B        0.68658368      -1.31363158      -3.05935603       0.00333441       0.00170084      -0.00050761
B       -1.02515739      -0.86336727      -3.11061626       0.00236865      -0.00002646      -0.00108089
B        0.17698778       0.12851200      -3.98028034       0.00040734       0.00277864      -0.00190025
B        0.52132491       1.55330187      -2.97410572       0.00000561       0.00104546      -0.00107105
C       -0.40000000       1.32300000      -1.56800000      -0.00767520      -0.15015671       0.07193928
B        1.32557664      -0.75525006      -1.49309735       0.00203407       0.00341962      -0.00510259
B       -0.31293341      -1.43877118      -1.57970476       0.00054625      -0.00078501      -0.00111925
B       -1.41679338      -0.04013018      -1.58046837      -0.00028802       0.00198803      -0.00116249
B       -1.11973195       0.90077304      -3.05089689       0.00136734       0.00136310      -0.00357978
Co       0.00000000       0.00000000       0.00000000       0.24498487      -0.38699737       0.02629123
H        1.42253075      -1.91943666       1.05180804      -0.00240855       0.00380312       0.00456909
H        2.49689872      -0.89433245       3.40985223       0.00048579      -0.00153428      -0.00024843
H        1.34395291       1.96835562       3.67864735       0.00131995      -0.00110661       0.00059979
H       -1.72299446       1.70133666       3.66591562       0.00078434      -0.00006948       0.00062615
H       -0.00467086      -0.33841237       5.16915852       0.00054341      -0.00048773       0.00139779
H        0.21823377      -2.82876032       3.27623822       0.00019993      -0.00059808      -0.00011871
H       -1.13687424      -2.15582267       1.04680215       0.00234051       0.00306369       0.00378599
H        2.41096325       0.77884262       1.10858898       0.00457838      -0.00352916       0.00317539
H       -0.25318991       2.55406445       1.23595443       0.00127715       0.00003162       0.00611492
H       -2.56163930       0.35324165       1.10293699       0.00014330      -0.00277345       0.00712155
H       -2.37448994      -1.30057793       3.41267982      -0.00120498       0.00007697       0.00078081
H        1.80772641       1.59497704      -1.03551804      -0.00214406      -0.00311262      -0.00395911
H        2.74552924       0.34804236      -3.34688191       0.00046219       0.00199167      -0.00025352
H        1.12604577      -2.27795173      -3.58985867       0.00143483       0.00148100      -0.00144077
H       -1.84862324      -1.49116126      -3.68740817       0.00070534       0.00036730      -0.00134643
H        0.22658999       0.20041232      -5.16289017       0.00049737       0.00146728      -0.00231725
H        0.80853786       2.65304707      -3.29574084       0.00027821       0.00149752       0.00038678
H       -0.67588956       2.25192183      -1.09693791       0.00140638      -0.00218896      -0.00255788
H        2.29914006      -1.22958363      -1.00202884       0.00612522       0.00284316      -0.00550165
H       -0.60660914      -2.52715831      -1.19135103       0.00196204      -0.00099005      -0.00817421
H       -2.52623289       0.03048129      -1.17734901       0.00149718       0.00280253      -0.00756298
H       -1.97848530       1.59215165      -3.48000013      -0.00129394       0.00113698      -0.00100033
