45
Properties=species:S:1:pos:R:3:forces:R:3 charge=-1 spin=1 energy=-54314.455868737874 free_energy=-54314.455868737874 stress="-0.14516644179821014 0.026194468140602112 0.14661943912506104 0.026194468140602112 -0.3262135684490204 0.17608290910720825 0.14661943912506104 0.17608290910720825 2.7107601165771484" pbc="F F F"
C       -1.15103587       0.89010315       1.52851535       0.00386224       0.00918050      -0.01396036
B       -1.52999889       0.19290161       3.02004631      -0.01325149      -0.00208497      -0.00336653
B       -0.45347906      -1.19709981       3.14560310      -0.01082354       0.00160207       0.00592308
B        1.21423902      -0.59688537       3.10121195      -0.00858764      -0.00180449      -0.01508240
B       -0.03852628       0.32886604       3.97326491      -0.00979680       0.00719752      -0.01073767
B       -0.55121185       1.65816171       2.91603665       0.00166508      -0.00022969      -0.00822856
C        0.32968029       1.43004326       1.49430362      -0.00362708      -0.01015196      -0.01035802
B       -1.20280679      -0.80284284       1.56679686       0.00903570      -0.00259604      -0.01499063
B        0.48149590      -1.32070651       1.63600000       0.30357072      -0.13008340      -0.43363777
B        1.46016811       0.16800240       1.51193132      -0.01656690      -0.01376431       0.01292566
B        1.14873593       1.16066935       2.95904988      -0.01960559      -0.00445737      -0.00748119
C        1.02042601       0.99468347      -1.56208587      -0.00980495       0.01214354       0.01604015
B        1.50523364       0.31845144      -3.03172548       0.01231099       0.00002489       0.00201492
B        0.64131950      -1.21484475      -3.12201456       0.00984521       0.00439664      -0.00723611
B       -1.09632716      -0.86049634      -3.09727898       0.00788302       0.00202690       0.01684735
B        0.01515645       0.21255349      -3.99211346       0.00651084       0.01164354       0.01115680
B        0.32477004       1.63000979      -2.97161817      -0.00269633       0.00134190       0.00870511
C       -0.52237900       1.31612075      -1.54553258       0.00570114      -0.00928991       0.01038766
B        1.31346816      -0.67301506      -1.55012792      -0.00823719       0.00131297       0.01097900
B       -0.27500000      -1.43300000      -1.61500000      -0.28948325      -0.09834716       0.51122147
B       -1.45652744      -0.09710262      -1.52802879       0.01786588      -0.00876507      -0.00978146
B       -1.28570390       0.89110142      -3.00253968       0.01824808      -0.00337151       0.00994775
Co       0.00000000       0.00000000       0.00000000      -0.00581638       0.21515958      -0.06979623
H       -1.90843233       1.47443563       1.02937360       0.02186506       0.01106334      -0.00917883
H       -2.63383943       0.28743089       3.43430748      -0.03083104       0.00458513      -0.02578162
H       -0.77562991      -2.16439423       3.74756216      -0.00945487      -0.00352380      -0.00868150
H        2.11087250      -1.12450102       3.66923929      -0.01257700       0.00687296      -0.00838056
H       -0.04851474       0.45678377       5.15281676      -0.02203036       0.00417744      -0.01747228
H       -0.92647620       2.74541335       3.19220161      -0.01414985       0.00374453      -0.02492025
H        0.50528052       2.36621019       0.98451109       0.01208954      -0.00578359       0.00108857
H       -2.14992489      -1.38837583       1.16278277       0.00622765      -0.00112126      -0.02241123
H        0.86776605      -2.39283973       1.30406663       0.00270099      -0.00350097      -0.00698493
H        2.53480914       0.33016838       1.03651147       0.01057847      -0.00638749      -0.00676460
H        1.96052228       1.94957601       3.31006323      -0.01987864      -0.00490229      -0.01586749
H        1.68268668       1.69564066      -1.07777528      -0.02324337       0.00559399       0.00256908
H        2.58655863       0.55939837      -3.44616601       0.02983906       0.01021168       0.02677532
H        1.10337113      -2.14097746      -3.69701594       0.01207289      -0.00146914       0.01088771
H       -1.90569076      -1.52582150      -3.65160988       0.01398954       0.00816664       0.00644368
H        0.01258242       0.30927471      -5.17472459       0.02344857       0.00583649       0.01766857
H        0.54053598       2.75238345      -3.27620863       0.01424851       0.00713092       0.02160688
H       -0.83376106       2.23192983      -1.06441354      -0.01489672      -0.00736859      -0.00070894
H        2.33238542      -1.10443387      -1.12696409      -0.00718520      -0.00007664       0.01817048
H       -0.50399939      -2.53934824      -1.25157175      -0.00211648      -0.00346339       0.00737914
H       -2.54694024      -0.07879073      -1.06115770      -0.01128428      -0.00790179       0.01023103
H       -2.20150302       1.54461138      -3.37532533       0.02238594      -0.00296833       0.01283967
