45
Properties=species:S:1:pos:R:3:forces:R:3 charge=-1 spin=1 energy=-54314.52542211312 free_energy=-54314.52542211312 stress="1.029453158378601 0.14018499851226807 0.04831433296203613 0.14018499851226807 1.047757863998413 -1.4978129863739014 0.04831433296203613 -1.4978129863739014 1.7567390203475952" pbc="F F F"
C        1.39917259      -0.32436718       1.55400000      -0.33882013       0.11638089       0.06710459
B        1.41880716       0.52971783       3.01913073       0.00073352       0.00059273      -0.00107107
B       -0.16005950       1.33230980       3.09640742       0.00030699       0.00104075      -0.00224522
B       -1.40723415       0.07280769       3.06475706       0.00118354       0.00070593      -0.00118098
B        0.11264210      -0.19343586       3.97441983       0.00033099       0.00134961      -0.00156658
B        1.16321710      -1.21661413       2.96902770       0.00017144       0.00157637      -0.00036425
C        0.28633360      -1.46590009       1.56400000       0.00266531       0.53165203      -0.60022253
B        0.71189722       1.23583977       1.55689723       0.00351517       0.00341049      -0.00193023
B       -1.05291478       0.98766446       1.57702051       0.00367787       0.00012824       0.00119497
B       -1.27292978      -0.78554447       1.49701271      -0.00064256      -0.00331730      -0.00047805
B       -0.59100849      -1.48944872       2.99490802      -0.00173057       0.00222468      -0.00365851
C        1.14300000       0.92400000      -1.55300000      -0.41882107      -0.36236027       0.16238928
B        1.61131377       0.17047700      -2.98976989       0.00080649       0.00010858       0.00066308
B        0.64259210      -1.31055303      -3.06682740       0.00006386      -0.00121429       0.00180795
B       -1.06724372      -0.84668659      -3.09147253       0.00098091      -0.00011963       0.00161369
B        0.13882091       0.13631931      -3.97721812       0.00120274      -0.00132631       0.00135356
B        0.51254727       1.55478366      -2.97456299       0.00108491      -0.00135827       0.00002538
C       -0.40000000       1.32300000      -1.56800000       0.10362680       0.09366674       0.40699795
B        1.30426976      -0.76596047      -1.51373379       0.00494657      -0.00164710       0.00303567
B       -0.34316438      -1.43676905      -1.57255288       0.00367171       0.00236577      -0.00118102
B       -1.43143919      -0.02473297      -1.54547166      -0.00290508       0.00315222       0.00044247
B       -1.13941198       0.91485087      -3.03197893      -0.00051989      -0.00327077       0.00449305
Co       0.00000000       0.00000000       0.00000000       0.65341914      -0.38089046      -0.03753725
H        2.33308491      -0.55798070       1.07133754      -0.00767539      -0.00248314      -0.00014968
H        2.45408738       0.93310284       3.42771785       0.00072273       0.00019087       0.00385412
H       -0.28409284       2.36620175       3.66259712       0.00002652      -0.00071160      -0.00024644
H       -2.44931080       0.17684552       3.61975044       0.00102994      -0.00000620       0.00036786
H        0.16123147      -0.26129183       5.15742552      -0.00020623       0.00103875      -0.00076836
H        1.96800804      -2.01882842       3.29350680      -0.00031027      -0.00081647       0.00321771
H        0.52001637      -2.38154692       1.04650053      -0.00022327       0.00134941      -0.00090015
H        1.32571484       2.15839671       1.11820176      -0.00172760      -0.00478839      -0.00495141
H       -1.85321567       1.78154862       1.19522969      -0.00269427       0.00412762      -0.00199694
H       -2.17211859      -1.40679097       1.04175913      -0.00201270       0.00473570      -0.00234415
H       -0.99817748      -2.52958871       3.38541567       0.00138490       0.00289815       0.00260604
H        1.81539599       1.59734641      -1.04901767      -0.00630385      -0.00078919      -0.00080223
H        2.71938343       0.33054356      -3.37449190       0.00072462       0.00015353      -0.00435048
H        1.06763254      -2.27732484      -3.60500852      -0.00060710       0.00082137       0.00002133
H       -1.90089575      -1.46473962      -3.66384792       0.00055589       0.00063224      -0.00012547
H        0.17448707       0.20988393      -5.16030843       0.00009779      -0.00110777       0.00063159
H        0.79831910       2.65507785      -3.29684147      -0.00049806       0.00045341      -0.00323300
H       -0.66955915       2.25139297      -1.09031147       0.00106052       0.00000070      -0.00020149
H        2.27966463      -1.26172875      -1.04253451      -0.00597047       0.00383021       0.00595141
H       -0.64265206      -2.52041210      -1.18268943       0.00025047      -0.00534655       0.00348367
H       -2.53220423       0.07551309      -1.12195484       0.00068070      -0.00488025       0.00303466
H       -1.99595711       1.61871962      -3.44531940       0.00274646      -0.00215282      -0.00278443
