45
Properties=species:S:1:pos:R:3:forces:R:3 charge=-1 spin=1 energy=-54314.550414102254 free_energy=-54314.550414102254 stress="0.78807133436203 0.5952581763267517 -1.1489185094833374 0.5952581763267517 0.7541711926460266 -1.2467806339263916 -1.1489185094833374 -1.2467806339263916 2.209197759628296" pbc="F F F"
C        0.12387659      -1.43092718       1.55400000       0.03263692       0.39717364      -0.09966264
B        0.92463494      -1.18831403       3.02650766       0.00202743       0.00219630      -0.00007235
B        1.18507036       0.56143008       3.12320955       0.00072566       0.00064667      -0.00280292
B       -0.40086583       1.34869261       3.09787087       0.00438722       0.00189168      -0.00286755
B       -0.18122996      -0.18859296       3.98792640       0.00437174       0.00490117      -0.00035551
B       -0.81245986      -1.49699146       2.96181209       0.00139766       0.00079315       0.00003410
C       -1.30567188      -0.72530748       1.56400000       0.27002639       0.09126985      -0.61936444
B        1.38601803      -0.28428778       1.56781969      -0.00223430       0.00026178       0.00124506
B        0.58685022       1.30368019       1.60827504      -0.00565427       0.00203500      -0.00115788
B       -1.15692095       0.96050505       1.52990864       0.00256346       0.00448507      -0.00281168
B       -1.62732422       0.08266178       3.00285192       0.00186484      -0.00115436       0.00293990
C        1.14300000       0.92400000      -1.55300000      -0.39909938      -0.38927636       0.40742925
B        1.60507382       0.16853489      -2.98373033       0.00038562      -0.00324268       0.00189495
B        0.63304167      -1.30738113      -3.06688474      -0.00068106      -0.00117095       0.00288409
B       -1.07379595      -0.83824344      -3.10660147       0.00089457      -0.00337923       0.00395788
B        0.13768973       0.14356507      -3.97980156      -0.00101717      -0.00540726       0.00047201
B        0.51117066       1.55908537      -2.97143984       0.00172673      -0.00151009       0.00003363
C       -0.40000000       1.32300000      -1.56800000       0.00909465       0.17033361       0.24560206
B        1.29741386      -0.77045889      -1.49829748      -0.00040399       0.00299270      -0.00164832
B       -0.35182175      -1.42744802      -1.57944140      -0.00699252       0.00196359      -0.00049438
B       -1.43284701      -0.01742277      -1.56986379      -0.00161834      -0.00478774       0.00175328
B       -1.14289727       0.92591809      -3.03926256       0.00101900      -0.00155468      -0.00244293
Co       0.00000000       0.00000000       0.00000000       0.07895294      -0.26851133       0.06855445
H        0.19697298      -2.38093019       1.05229020       0.00069098      -0.00533248       0.00095511
H        1.63425979      -2.04199834       3.43553769       0.00237521       0.00182255      -0.00227780
H        2.12459757       0.99756236       3.69898182       0.00055034       0.00059757      -0.00507725
H       -0.63158761       2.36703781       3.65954401       0.00299027       0.00027349      -0.00377764
H       -0.23585644      -0.27145485       5.16979751       0.00345190       0.00280676      -0.00077763
H       -1.32363745      -2.51656842       3.27027166       0.00137396       0.00087891       0.00227867
H       -2.09877430      -1.23077071       1.03771199      -0.00635799      -0.00255869       0.00112739
H        2.46391015      -0.56162345       1.16170618       0.00020801      -0.00111110       0.00876855
H        1.08752575       2.31984338       1.23415901      -0.00080670      -0.00192245       0.00105900
H       -2.01230652       1.62481765       1.04296023      -0.00237152      -0.00221004      -0.00231390
H       -2.74662755       0.12907122       3.38487008      -0.00061183       0.00321031       0.00185612
H        1.81187147       1.58992012      -1.03475764       0.00352059       0.00312804      -0.00023671
H        2.71346679       0.32059346      -3.36849838      -0.00012197      -0.00302053       0.00231004
H        1.05836034      -2.27311610      -3.60610956      -0.00030260      -0.00089576       0.00390914
H       -1.90785531      -1.45504118      -3.68073892       0.00253516      -0.00060458       0.00376476
H        0.18172655       0.21930787      -5.16253192       0.00080507      -0.00371039       0.00031624
H        0.80362950       2.65812691      -3.29143420       0.00072127      -0.00082932      -0.00194807
H       -0.66733414       2.25026020      -1.08701267      -0.00267586       0.00529425      -0.00090006
H        2.26825430      -1.27722075      -1.04634182       0.00157686      -0.00041196      -0.00897783
H       -0.66150945      -2.51069985      -1.18805640      -0.00025430       0.00092805      -0.00273064
H       -2.52793408       0.07301869      -1.12041622       0.00001616       0.00406250       0.00112419
H       -1.99347888       1.63654546      -3.45441336      -0.00168703      -0.00134510      -0.00157119
