45
Properties=species:S:1:pos:R:3:forces:R:3 charge=-1 spin=1 energy=-242.30751037597656 free_energy=-242.30751037597656 stress="-7.297801118966163e-08 2.0554598023636572e-08 -4.5514386926015504e-08 2.0554598023636572e-08 -8.310054511184717e-08 9.666053557566556e-08 -4.5514386926015504e-08 9.666053557566556e-08 -1.7394377493928914e-07" pbc="F F F"
C        1.30115758      -0.60818331       1.55400000       0.20880505      -0.03816625       0.31676638
B        1.50713695       0.19084193       3.03455457      -0.00000018       0.00127531       0.00144184
B        0.14505347       1.31774469       3.08894028      -0.00095239      -0.00067648       0.00050414
B       -1.34830001       0.34187617       3.06015522       0.00248253       0.00145421       0.00438646
B        0.08115924      -0.24091575       3.97610816      -0.00130866      -0.00062334      -0.00109978
B        0.87427010      -1.44409479       3.02638822      -0.00036667      -0.00022034       0.00199702
C       -0.02470124      -1.49339876       1.56400000      -0.08099726      -0.06154081      -0.00929949
B        0.98434474       1.04551895       1.55367604      -0.00090840       0.00361426       0.00152944
B       -0.79990803       1.18348510       1.59294996       0.00096333       0.00137311       0.00316410
B       -1.38440282      -0.51355271       1.49203059      -0.00102687       0.00009790      -0.00462948
B       -0.87107240      -1.36176083       3.01439545      -0.00190923       0.00348412       0.00444045
C        1.14300000       0.92400000      -1.55300000       0.11611046       0.03119442      -0.17607433
B        1.61856157       0.20235340      -3.00321146       0.00056897      -0.00338673      -0.00206032
B        0.67526493      -1.29224497      -3.05169966      -0.00150400       0.00083029       0.00003646
B       -1.04845500      -0.83608048      -3.08171403       0.00384772       0.00091979      -0.00494954
B        0.15053164       0.15708415      -3.97422215      -0.00215571      -0.00011496       0.00180541
B        0.50830833       1.55590598      -3.02926336      -0.00235436       0.00087555      -0.00164297
C       -0.40000000       1.32300000      -1.56800000      -0.17320937       0.29482898      -0.20010465
B        1.34023700      -0.74129779      -1.50571247       0.00151160      -0.00528906      -0.00209796
B       -0.30468620      -1.43816766      -1.58357441       0.00068934      -0.00181547      -0.00446239
B       -1.40611540      -0.02140565      -1.53893506      -0.00063279      -0.00189456       0.00561549
B       -1.12603319       0.93090702      -3.04801926      -0.00071058      -0.00432097      -0.00587644
Co       0.00000000       0.00000000       0.00000000      -0.06284735      -0.21864387       0.06610128
H        2.19302360      -1.01548735       1.07090475      -0.00580540       0.00413613      -0.00248433
H        2.60992971       0.38697283       3.44216822       0.00073117      -0.00147090       0.00115088
H        0.21905823       2.35687678       3.67109289       0.00190822      -0.00016081      -0.00104394
H       -2.35073409       0.67891293       3.61401629      -0.00005506       0.00235676      -0.00128710
H        0.08286306      -0.26389736       5.16631013      -0.00212300       0.00022038      -0.00171889
H        1.50343161      -2.40127751       3.33862876      -0.00129198      -0.00229433       0.00172685
H       -0.01600159      -2.44967482       1.03418551       0.00253358      -0.00135414       0.00431101
H        1.79465341       1.81332475       1.12303211       0.00188994      -0.00152438       0.00195109
H       -1.40857419       2.12422251       1.17086494       0.00155843       0.00053925      -0.00419532
H       -2.40439129      -0.93533944       1.03456488       0.00110042      -0.00183975       0.00238657
H       -1.51759562      -2.28577670       3.40090489      -0.00175647       0.00063515      -0.00156468
H        1.84717963       1.59135511      -1.04895865      -0.00351270      -0.00455206       0.00138687
H        2.73646480       0.34745232      -3.38981260       0.00058323       0.00161595      -0.00134484
H        1.08731270      -2.26469330      -3.60693198       0.00124225       0.00159527       0.00209995
H       -1.87515894      -1.47719372      -3.65678819       0.00180383      -0.00226877       0.00330891
H        0.17403285       0.16640171      -5.16437543      -0.00259386      -0.00109788       0.00294909
H        0.80336331       2.66178596      -3.34458996      -0.00135102       0.00163892      -0.00225854
H       -0.70631388       2.25263752      -1.07779972       0.00083137      -0.00275679       0.00456805
H        2.33467707      -1.21266243      -1.03945434       0.00321323       0.00289271      -0.00196040
H       -0.58948861      -2.51318846      -1.14220793      -0.00153676      -0.00020045      -0.00265375
H       -2.52232045       0.06385065      -1.11962971       0.00029590       0.00202597      -0.00197778
H       -2.01306404       1.61236566      -3.46020660      -0.00176053      -0.00139163       0.00115901
