45
Properties=species:S:1:pos:R:3:forces:R:3 charge=-1 spin=1 energy=-54314.42766095894 free_energy=-54314.42766095894 stress="0.9347997903823853 -0.371374249458313 0.2721278667449951 -0.371374249458313 0.9329296350479126 -0.8174258470535278 0.2721278667449951 -0.8174258470535278 1.1080806255340576" pbc="F F F"
C        1.37390259       0.41867608       1.55400000       0.04699165      -0.20885941      -0.08521462
B        1.00053292       1.18137730       3.01479568       0.00083785       0.00039955       0.00292249
B       -0.76553415       1.12138033       3.09745688       0.00105413       0.00120496       0.00371000
B       -1.24392969      -0.58397352       3.07713322       0.00174542       0.00142743       0.00212007
B        0.21589668      -0.08005077       3.97769586       0.00233471       0.00050351       0.00310063
B        1.62368049      -0.47288441       2.96738151       0.00169913       0.00044476      -0.00006571
C        0.98092222      -1.12633991       1.56400000      -0.60625625       0.54683918      -0.31728479
B        0.03362782       1.44804834       1.55094568       0.00193330       0.00233320      -0.00101681
B       -1.39038559       0.37881913       1.58236209      -0.00447802       0.00349872       0.00330707
B       -0.72400046      -1.28050595       1.51204395      -0.00334108      -0.00393028      -0.00099559
B        0.22476605      -1.55981173       3.00359404       0.00134360      -0.00014491      -0.00095496
C        1.14300000       0.92400000      -1.55300000      -0.38758451       0.02551090       0.21997917
B        1.63546908       0.19477821      -2.98937314       0.00085772       0.00076465      -0.00191132
B        0.69734076      -1.30148326      -3.06637668       0.00042158       0.00123744      -0.00376197
B       -1.01943833      -0.86711485      -3.09507170       0.00030950       0.00147905      -0.00252300
B        0.16714710       0.13691875      -3.97813733       0.00092975       0.00195398      -0.00355818
B        0.51107692       1.56002438      -2.97407986       0.00023014       0.00156323      -0.00090543
C       -0.40000000       1.32300000      -1.56800000       0.01432478      -0.21243067       0.19264160
B        1.33939498      -0.74560865      -1.51028592       0.00376225       0.00016489       0.00286786
B       -0.29301572      -1.44951500      -1.57350718       0.00134978      -0.00666921      -0.00211193
B       -1.40764849      -0.05561460      -1.54957753      -0.00408688       0.00002468      -0.00210672
B       -1.12746917       0.89272423      -3.03446848      -0.00032383       0.00174726      -0.00001277
Co       0.00000000       0.00000000       0.00000000       0.91690654      -0.16777125      -0.00634600
H        2.30656113       0.66501824       1.07032699      -0.00202265      -0.00035853      -0.00338477
H        1.71783825       2.03615523       3.41070184       0.00272664       0.00039072      -0.00098824
H       -1.37593317       1.96500408       3.66276875       0.00006816       0.00416858       0.00200695
H       -2.20341854      -0.99653345       3.63662661       0.00064747       0.00128092       0.00144653
H        0.29600913      -0.11158268       5.16024205       0.00229269       0.00170408       0.00469952
H        2.72099841      -0.77444762       3.28694194       0.00203518      -0.00011531      -0.00032793
H        1.63346799      -1.81249709       1.05298607      -0.00278683       0.00496232      -0.00061373
H        0.13760279       2.54398319       1.09352221       0.00146525      -0.00036198       0.00104291
H       -2.48141112       0.68758536       1.23071233       0.00381950      -0.00103633       0.00294707
H       -1.22859135      -2.25978679       1.08265850      -0.00322092      -0.00688749      -0.00131813
H        0.36956212      -2.66454097       3.40179914       0.00041720      -0.00043918       0.00186202
H        1.80540040       1.61366579      -1.05411160      -0.00101567      -0.00231602       0.00309731
H        2.74279932       0.37951829      -3.36566038       0.00150386       0.00241759      -0.00026248
H        1.13623967      -2.26211557      -3.60363991       0.00244405      -0.00071032      -0.00231143
H       -1.84091386      -1.49917694      -3.66888775       0.00004289       0.00005900      -0.00187575
H        0.20307173       0.21113074      -5.16089664       0.00117693       0.00215051      -0.00525145
H        0.78673458       2.66400805      -3.29356159       0.00042680       0.00257452       0.00060344
H       -0.67892072       2.25027442      -1.09606302       0.00134006      -0.00330308       0.00051283
H        2.32469442      -1.20506431      -1.02247876       0.00304238      -0.00070001      -0.00049893
H       -0.56834424      -2.54523678      -1.21103821       0.00092294       0.00347893      -0.00297404
H       -2.51697605       0.01075501      -1.14466533      -0.00531184       0.00041826       0.00064996
H       -1.99655804       1.57706046      -3.45403282      -0.00097511       0.00133087      -0.00094058
