45
Properties=species:S:1:pos:R:3:forces:R:3 charge=-1 spin=1 energy=-242.2996826171875 free_energy=-242.2996826171875 stress="-6.681964315191635e-09 -2.349881711438684e-08 1.7819605346858225e-08 -2.349881711438684e-08 2.8572742394317174e-08 6.193257462427937e-08 1.7819605346858225e-08 6.193257462427937e-08 6.311994837915336e-08" pbc="F F F"
C       -1.25396959      -0.78496864       1.59260624      -0.01238135       0.00097317       0.00510609
B       -0.69073674      -1.39587524       3.05112705      -0.00312553      -0.00311713       0.01095958
B        0.98756264      -0.85110083       3.11396161       0.00342302       0.00025521      -0.00695463
B        0.97588937       0.93283510       3.11477103       0.00101648      -0.00098446      -0.01834504
B       -0.29320784       0.02754227       4.00476628       0.00298632       0.00173739      -0.00007772
B       -1.72450578       0.01807034       3.03487962      -0.00427333      -0.00600585       0.01736753
C       -1.26353469       0.82033904       1.59097337      -0.00911686      -0.00995077       0.00050890
B        0.31600542      -1.36915292       1.52715926      -0.03541484      -0.01571667       0.01109240
B        1.40485695       0.04980906       1.63600000      -0.05320144       0.00634060      -0.02637468
B        0.28882910       1.44538776       1.55399874       0.01515517      -0.02455196      -0.03666566
B       -0.70794298       1.44967965       3.04450820      -0.00013957      -0.00234327       0.00342950
C        1.14177354       0.96416298      -1.59005028      -0.00795770       0.01433489       0.00021693
B        1.62179334       0.24651685      -3.02935495       0.00173503       0.00332761      -0.00794332
B        0.69802154      -1.25454586      -3.08122869       0.00311784      -0.00152589       0.00736826
B       -1.03163702      -0.82254609      -3.11084728       0.00247605      -0.00504309       0.01738816
B        0.15785422       0.18401450      -4.00233416       0.00164885      -0.00521944      -0.00059710
B        0.49879248       1.58753388      -3.05154330       0.00287102       0.00321248      -0.02062593
C       -0.41959934       1.36034144      -1.62030597       0.00570330       0.01129502      -0.01388675
B        1.32708692      -0.69375634      -1.48001924       0.01466301       0.03736409       0.00495906
B       -0.27500000      -1.43300000      -1.61500000      -0.11675243       0.15350679       0.07003008
B       -1.39684682      -0.00931500      -1.57763366       0.00418806      -0.01980385       0.00118825
B       -1.13841206       0.94056455      -3.07352674      -0.00099039      -0.00357282      -0.00853713
Co       0.00000000       0.00000000       0.00000000       0.17503750      -0.10032844      -0.01666725
H       -2.05768252      -1.31499423       1.07394450      -0.00763723       0.01923290      -0.01919696
H       -1.11065879      -2.43869228       3.44719412       0.00347669      -0.01133560      -0.00081782
H        1.81474741      -1.49190601       3.68945147       0.00505518      -0.00367387      -0.00892268
H        1.79369449       1.57798038       3.69835353      -0.00230190       0.00111032      -0.01372477
H       -0.33597025       0.02990337       5.19427731       0.01109851      -0.00159791       0.00213666
H       -2.87233292       0.01355928       3.33816564      -0.00668058      -0.00681681       0.00732051
H       -2.08438301       1.33433929       1.08233006      -0.00949118      -0.02030283      -0.01779555
H        0.53018700      -2.46656500       1.10379308      -0.00996851      -0.01070006      -0.00473237
H        2.53933850       0.05681453       1.25876807       0.00492921      -0.00651650      -0.02143306
H        0.49071955       2.52751841       1.08369188      -0.00496797      -0.00636353      -0.01062976
H       -1.14844152       2.48289516       3.44450799      -0.00221781       0.00224766      -0.00154088
H        1.84052254       1.62427421      -1.06890440      -0.02901275       0.02071871       0.01819469
H        2.74013336       0.39438046      -3.41426104       0.01071739      -0.00163000       0.01066452
H        1.13185706      -2.21597162      -3.64123028       0.01092179      -0.00526789       0.01524453
H       -1.84743378      -1.47146216      -3.69299690       0.00584650      -0.00364941       0.01061110
H        0.17790836       0.20947165      -5.19219444       0.00327588      -0.01527571      -0.00212772
H        0.78315400       2.69488722      -3.37157279       0.00511842       0.00529629      -0.00896262
H       -0.72928232       2.29261658      -1.13882451       0.01114978       0.00128831       0.01706117
H        2.33736665      -1.15140551      -1.03509889       0.00586928       0.01305525       0.01974243
H       -0.56163412      -2.52077960      -1.21156329       0.00510961      -0.00375051       0.02020542
H       -2.50550322       0.04902057      -1.12827905       0.00314908       0.00489581       0.00495362
H       -2.03068411       1.60877911      -3.49671072      -0.00410712      -0.00514874      -0.00918980
