45
Properties=species:S:1:pos:R:3:forces:R:3 charge=-1 spin=1 energy=-242.30101013183594 free_energy=-242.30101013183594 stress="2.5939989711787348e-08 1.0682269291351076e-08 -3.651375024560366e-08 1.0682269291351076e-08 1.8324591621876607e-08 5.111808576430121e-08 -3.651375024560366e-08 5.111808576430121e-08 4.19654107020051e-08" pbc="F F F"
C        1.47192104       0.17902598       1.59638713       0.01399416      -0.00559835      -0.00044188
B        1.21809923       0.97214526       3.04900076       0.00212245       0.00380431       0.01122830
B       -0.53529576       1.19245539       3.11059396      -0.00768802      -0.00200698       0.00141537
B       -1.27660374      -0.43066220       3.10663674      -0.00363389      -0.00430000      -0.00841914
B        0.24914341      -0.15487257       4.00214998      -0.00431566      -0.00574411      -0.00231858
B        1.55562990      -0.75318572       3.03784769      -0.00254585      -0.00291792       0.00627848
C        0.80141022      -1.28075081       1.58867588       0.02683860       0.01066693      -0.02867430
B        0.30513293       1.38857003       1.56162164       0.00474897       0.01914915      -0.01483800
B       -1.29236024       0.55309042       1.63600000       0.10576209       0.06713684      -0.11703534
B       -0.86352727      -1.16919313       1.50625875       0.00170930       0.00692314       0.00248662
B        0.03217998      -1.61483654       3.04218715       0.00539215       0.00230677       0.00896953
C        1.12901168       0.97422525      -1.58682214       0.01517123       0.00962678      -0.00286078
B        1.62393027       0.24993282      -3.01654562       0.00369164       0.00320257      -0.01005279
B        0.70550848      -1.25787458      -3.07113285      -0.00083907      -0.00366355      -0.00195997
B       -1.02474326      -0.82489484      -3.10654325      -0.00221728      -0.00080010       0.00867764
B        0.15866542       0.18037866      -3.99967177      -0.00395410      -0.00016157       0.00385695
B        0.49293154       1.59161385      -3.05581193      -0.01080234      -0.00054410      -0.01020473
C       -0.42688910       1.36458431      -1.62276038       0.01610771       0.01281881       0.02417764
B        1.34384164      -0.68894580      -1.51571984       0.02090141      -0.00364125       0.01945158
B       -0.27500000      -1.43300000      -1.61500000      -0.01313348       0.14544609       0.08839883
B       -1.38193624      -0.00773876      -1.54211803      -0.00377032      -0.00601603      -0.00575101
B       -1.13591125       0.94034616      -3.08202928       0.00537841       0.00114158      -0.00811425
Co       0.00000000       0.00000000       0.00000000      -0.03882567      -0.20316681       0.03025550
H        2.42945973       0.30874301       1.08185377      -0.01092455      -0.00708521       0.03176064
H        2.04346776       1.73250668       3.45272892      -0.00565931      -0.00001612       0.00651316
H       -1.01540508       2.12142226       3.68675879      -0.00334216      -0.00831044       0.00199042
H       -2.29635926      -0.67559781       3.67831485       0.00109784      -0.01099150      -0.01027792
H        0.27857278      -0.16808643       5.19194164      -0.00294707      -0.00315180       0.00434688
H        2.59747075      -1.23404030       3.34471106      -0.00635895       0.00311305       0.00732794
H        1.31686951      -2.08160897       1.05221890       0.01754235      -0.00579879       0.01127650
H        0.57248087       2.46905430       1.11716201      -0.01801265      -0.02076568      -0.01360501
H       -2.31213411       1.02655849       1.22900898      -0.01377832      -0.00568371      -0.00205906
H       -1.50696287      -2.08189339       1.08013200       0.01215506      -0.01053750      -0.02032274
H       -0.01740371      -2.74000575       3.43199948      -0.00787449      -0.01015401       0.00123742
H        1.82006225       1.64775273      -1.06936627      -0.01977161       0.00085915      -0.03068112
H        2.74177262       0.40745992      -3.40101576      -0.00448650       0.00471194       0.00139283
H        1.14214561      -2.22031414      -3.62657000      -0.00265786       0.00427780       0.00011270
H       -1.84297892      -1.47802574      -3.68129378      -0.00278829       0.00309601       0.00862265
H        0.18541851       0.19028187      -5.18943491       0.00286989      -0.00281671      -0.00463046
H        0.77876360       2.69822954      -3.37840533      -0.00668519      -0.00345695      -0.00683495
H       -0.74180797       2.28193304      -1.11737130      -0.00470619       0.02017158      -0.01236069
H        2.34327514      -1.14188900      -1.03428233      -0.03162254       0.01130621       0.01637703
H       -0.55992025      -2.50963794      -1.18231670      -0.01084626      -0.00819438      -0.00081183
H       -2.50799798       0.06080889      -1.14464974       0.00085166       0.01266221       0.02211199
H       -2.03435008       1.60004819      -3.50433554      -0.01214793      -0.00689681      -0.00601196
