45
Properties=species:S:1:pos:R:3:forces:R:3 charge=-1 spin=1 energy=-54314.471226709065 free_energy=-54314.471226709065 stress="1.6142044067382812 0.29555201530456543 0.3821619749069214 0.29555201530456543 0.4624888002872467 -0.14768530428409576 0.3821619749069214 -0.14768530428409576 1.0764542818069458" pbc="F F F"
C        0.42117838       1.37313756       1.55400000       0.10991613      -0.14542674      -0.07328350
B       -0.42902728       1.47146416       3.00980143       0.00042846       0.00180627      -0.00216675
B       -1.35984365      -0.03327590       3.07221840       0.00044788       0.00187096      -0.00269883
B       -0.20488583      -1.37603022       3.05043240      -0.00246379       0.00239745       0.00236236
B        0.17907830       0.11172137       3.96628237       0.00121847       0.00082662      -0.00056654
B        1.29491507       1.07396188       2.97167288       0.00064955      -0.00035727      -0.00038891
C        1.48230285       0.18338009       1.56400000      -0.70286393      -0.03308788      -0.31024101
B       -1.18881169       0.82947619       1.53417271       0.00449471      -0.00151679       0.00252864
B       -1.08137405      -0.95255157       1.54607188      -0.00201193       0.00260913      -0.00005679
B        0.67166173      -1.31767726       1.49434138       0.00102428       0.00152776       0.00068698
B        1.42182748      -0.69422428       2.99733691       0.00009088       0.00136639       0.00032417
C        1.14300000       0.92400000      -1.55300000      -0.48746452      -0.17333184       0.10809465
B        1.61209115       0.16854536      -2.98375918       0.00119563       0.00057388       0.00156821
B        0.66052171      -1.32364998      -3.02778247       0.00113096       0.00071908       0.00290913
B       -1.05293923      -0.87607352      -3.05092453       0.00303324      -0.00143430      -0.00084330
B        0.13514525       0.10631455      -3.95909237       0.00010017       0.00042108       0.00059902
B        0.50012584       1.54370853      -2.98050233      -0.00082158       0.00002288      -0.00026234
C       -0.40000000       1.32300000      -1.56800000       0.10510783      -0.05462690       0.20071934
B        1.33118531      -0.75845804      -1.48695375      -0.00439129       0.00365935      -0.00281841
B       -0.31760593      -1.44733984      -1.51839065       0.00280167      -0.00096261       0.00096662
B       -1.42042382      -0.04094359      -1.51693489       0.00015640       0.00083400       0.00017612
B       -1.14471239       0.88557561      -3.01956113       0.00094084      -0.00021518      -0.00058405
Co       0.00000000       0.00000000       0.00000000       0.97020090       0.40440744       0.07306252
H        0.73166367       2.29536372       1.08422819      -0.00102891      -0.00472935       0.00071223
H       -0.74508295       2.53857232       3.41453425       0.00013871       0.00099319      -0.00205013
H       -2.40195401      -0.08001379       3.63412737       0.00172247       0.00136732      -0.00225428
H       -0.39815307      -2.40754646       3.60048106      -0.00103852       0.00138284       0.00086352
H        0.24153306       0.15134170       5.14978492      -0.00175633       0.00218926      -0.00075070
H        2.15462747       1.81706722       3.30064922       0.00142875       0.00059356       0.00077772
H        2.42229454       0.34092295       1.05979014      -0.00279579      -0.00271808       0.00572247
H       -2.03859530       1.52701333       1.08203183      -0.00064188       0.00453517      -0.00097025
H       -1.93718553      -1.69067730       1.18462360       0.00019962       0.00235850       0.00085003
H        1.21624173      -2.27092891       1.05292587      -0.00516929      -0.00572713       0.00621880
H        2.42014084      -1.18906036       3.39685899      -0.00094457       0.00022366       0.00211850
H        1.81982289       1.61370594      -1.07149840      -0.00310342      -0.00233918      -0.00145674
H        2.71659405       0.33656269      -3.37683816       0.00044858      -0.00128076       0.00219342
H        1.08568635      -2.29340705      -3.55959505       0.00003736       0.00141418       0.00243505
H       -1.88322538      -1.50944386      -3.61056260       0.00205042      -0.00081709      -0.00105621
H        0.16166165       0.16185183      -5.14329426       0.00285295      -0.00160665       0.00090863
H        0.77868938       2.64318510      -3.31670589      -0.00044540       0.00040772      -0.00226360
H       -0.68004367       2.25668689      -1.10470433      -0.00110067      -0.00246162      -0.00596012
H        2.31545353      -1.21961773      -1.00776531       0.00549364       0.00123297       0.00046792
H       -0.60497248      -2.53345747      -1.13770667       0.00209518       0.00127112      -0.00004322
H       -2.52275164       0.05180492      -1.09476039      -0.00126287      -0.00590621      -0.00393723
H       -2.01221363       1.57298702      -3.43903129      -0.00010049      -0.00246650      -0.00261303
