45
Properties=species:S:1:pos:R:3:forces:R:3 charge=-1 spin=1 energy=-242.27369689941406 free_energy=-242.27369689941406 stress="-7.581414251944807e-08 8.147232222199818e-09 -5.588896101471619e-08 8.147232222199818e-09 -8.468812495721068e-08 8.896508063571673e-08 -5.588896101471619e-08 8.896508063571673e-08 -1.6562593430080597e-07" pbc="F F F"
C        1.43424178      -0.07647554       1.55400000       0.22176756       0.03448278       0.30590910
B        1.32640134       0.74253903       3.03105910       0.00002275       0.00012123      -0.00309173
B       -0.35696334       1.27859457       3.08526542      -0.00117105       0.00074267      -0.00145972
B       -1.37835594      -0.18538879       3.05664403      -0.00128284      -0.00178031      -0.00083361
B        0.16272924      -0.19186983       3.97300184      -0.00038231      -0.00098805       0.00045840
B        1.34934028      -1.01190793       3.02548730      -0.00149028      -0.00006492      -0.00077279
C        0.53653443      -1.39390846       1.56400000      -0.04881614      -0.08331480       0.01688454
B        0.52298226       1.34075587       1.55249903      -0.00009787      -0.00391459      -0.00020474
B       -1.18400510       0.80092013       1.58874911      -0.00138983      -0.00093687      -0.00312988
B       -1.08972875      -0.99413669       1.48387583      -0.00144871       0.00056684      -0.00238320
B       -0.30180782      -1.58754266       3.01198704       0.00120725      -0.00032720      -0.00028596
C        1.14300000       0.92400000      -1.55300000       0.10396485       0.04284677      -0.18117833
B        1.61863963       0.20144542      -3.00033600       0.00012907       0.00034270       0.00459256
B        0.67824511      -1.29270086      -3.04779402      -0.00043963      -0.00131416       0.00233541
B       -1.04734170      -0.83805222      -3.07766221      -0.00269327       0.00043699       0.00153498
B        0.14751160       0.15481057      -3.97093697      -0.00054820       0.00000183       0.00003186
B        0.50421177       1.55498036      -3.02764427      -0.00065055      -0.00084225       0.00108536
C       -0.40000000       1.32300000      -1.56800000      -0.16118327       0.29546890      -0.22656986
B        1.34467961      -0.74155606      -1.50502771      -0.00178471       0.00327460       0.00010097
B       -0.30191756      -1.43957651      -1.57985387      -0.00195684      -0.00132722       0.00348823
B       -1.40449095      -0.02076720      -1.52922550      -0.00034702      -0.00211878       0.00354151
B       -1.12986820       0.92721839      -3.04509469       0.00069490       0.00094619       0.00072734
Co       0.00000000       0.00000000       0.00000000      -0.08814406      -0.27254939       0.07034242
H        2.41396508      -0.12268650       1.06871079       0.00020519       0.00172387       0.00310934
H        2.27641010       1.33394923       3.44217045      -0.00048977       0.00081274      -0.00074394
H       -0.67579230       2.26929094       3.66943280      -0.00084784       0.00160474      -0.00054518
H       -2.43554749      -0.24491848       3.60846046      -0.00154322       0.00017692      -0.00029475
H        0.17138505      -0.21275853       5.16301607      -0.00069802       0.00113213       0.00060274
H        2.28967471      -1.66529671       3.33969187      -0.00170690       0.00114007       0.00040632
H        0.90585411      -2.27852210       1.03729554       0.00093868       0.00095597       0.00327553
H        0.98240145       2.35101377       1.10319616      -0.00239566      -0.00150360      -0.00925975
H       -2.10475991       1.44359100       1.17456327      -0.00161270      -0.00539927       0.00033811
H       -1.87294109      -1.76969574       1.02183843       0.00205790      -0.00333259       0.00003318
H       -0.55943068      -2.68597959       3.39709837      -0.00066239       0.00114800       0.00064462
H        1.84744905       1.59619281      -1.05361236       0.00221235       0.00093198       0.00526217
H        2.73466557       0.35088923      -3.39147724      -0.00031468      -0.00129903       0.00090623
H        1.09063791      -2.26322740      -3.60634206       0.00079012      -0.00233135       0.00235992
H       -1.87323148      -1.48272027      -3.65024314      -0.00098020      -0.00242871       0.00165756
H        0.16951293       0.16427837      -5.16086405      -0.00044514      -0.00249290       0.00003766
H        0.79734590       2.66098269      -3.34486820      -0.00087097      -0.00181839      -0.00087188
H       -0.70461152       2.25319461      -1.07703563       0.00148740       0.00074936      -0.00066173
H        2.32819980      -1.20939834      -1.01064722      -0.00281905      -0.00310251       0.00303846
H       -0.58934236      -2.51340954      -1.13879124      -0.00542231       0.00138895      -0.00109762
H       -2.51941256       0.06782083      -1.10572109      -0.00058633       0.00427439       0.00140367
H       -2.01989399       1.60571950      -3.45582770      -0.00025620      -0.00208427      -0.00072357
