45
Properties=species:S:1:pos:R:3:forces:R:3 charge=-1 spin=1 energy=-54314.33486081856 free_energy=-54314.33486081856 stress="1.3097798824310303 -0.12180858850479126 0.356070339679718 -0.12180858850479126 0.518760085105896 -0.5041188597679138 0.356070339679718 -0.5041188597679138 0.7490772604942322" pbc="F F F"
C        1.11702148       0.90286267       1.55400000      -0.04216199      -0.16177307       0.03569553
B        0.48196073       1.46356343       3.01723378      -0.00209712      -0.00244652       0.00296657
B       -1.12541732       0.72827826       3.10350782       0.00008660       0.00010271      -0.00037453
B       -0.91098183      -1.02794239       3.08481619      -0.00078323      -0.00056726       0.00516865
B        0.24440783       0.00029248       3.98384823      -0.00139635      -0.00427847      -0.00150750
B        1.69029968       0.17530191       2.96827399      -0.00199219      -0.00243593      -0.00059960
C        1.33142960      -0.67686425       1.56400000      -0.48960400       0.41695076      -0.24382530
B       -0.52285095       1.34280840       1.55790345       0.00030614      -0.00055329       0.00005365
B       -1.42183766      -0.19894219       1.58447914      -0.00242989       0.00119051       0.00547967
B       -0.16612432      -1.47067838       1.51570341       0.00143865      -0.00125137       0.00230756
B        0.81622007      -1.36385833       3.01156164       0.00325660       0.00036408      -0.00249083
C        1.14300000       0.92400000      -1.55300000      -0.44728675      -0.18799274       0.02140715
B        1.62163970       0.19592342      -2.99687522      -0.00285949      -0.00131452      -0.00272677
B        0.66302210      -1.28830112      -3.08113723      -0.00002384       0.00029025      -0.00039419
B       -1.04583934      -0.83362648      -3.10592303      -0.00138079      -0.00017803      -0.00527119
B        0.15320630       0.16106202      -3.98652771      -0.00480560      -0.00245823       0.00148545
B        0.51397797       1.57202990      -2.97335217      -0.00260931      -0.00185983       0.00126153
C       -0.40000000       1.32300000      -1.56800000       0.17324467       0.08998265       0.19829580
B        1.32021038      -0.75788855      -1.52538615      -0.00108763      -0.00002189       0.00103710
B       -0.32780985      -1.43570054      -1.58173162      -0.00019556      -0.00191242      -0.00599572
B       -1.41882640      -0.02757382      -1.55146507      -0.00131061       0.00064467      -0.00218104
B       -1.13171433       0.92284305      -3.03848681       0.00124609       0.00357249       0.00159853
Co       0.00000000       0.00000000       0.00000000       0.86105376      -0.11111535      -0.01369139
H        1.88862146       1.49367160       1.08716217       0.00157237      -0.00404032      -0.00495702
H        0.81789501       2.52897681       3.41030366      -0.00345746      -0.00155468      -0.00144281
H       -2.01115483       1.27404674       3.67068982      -0.00253152      -0.00505476      -0.00198232
H       -1.63978502      -1.77424425       3.64609038      -0.00245402      -0.00639551      -0.00209044
H        0.33402504       0.00447550       5.16641024      -0.00265591      -0.00179070      -0.00317196
H        2.82313477       0.31472872       3.27767798      -0.00441205       0.00074179      -0.00112672
H        2.20013288      -1.06461016       1.06249553      -0.00110163       0.00197733       0.00015164
H       -0.85404645       2.39946718       1.12073772      -0.00009384      -0.00668478       0.00160927
H       -2.55110856      -0.34178041       1.25321921       0.00114113      -0.00376555      -0.00293784
H       -0.24563099      -2.57172517       1.09330508       0.00406112      -0.00194751      -0.00267826
H        1.37801884      -2.32815383       3.40488813       0.00001951       0.00079086      -0.00227709
H        1.81932267       1.60941879      -1.06975050      -0.00335046       0.00186334       0.00502027
H        2.73084783       0.36864547      -3.37423115      -0.00182366      -0.00359926       0.00162120
H        1.09172708      -2.24977649      -3.62507969      -0.00542459      -0.00251214       0.00208687
H       -1.87349493      -1.45483448      -3.68212171      -0.00683222      -0.00147870       0.00225929
H        0.19007288       0.24198581      -5.16915483      -0.00226262      -0.00245788       0.00363642
H        0.79746803       2.67839485      -3.27972833       0.00024259      -0.00481594       0.00150540
H       -0.67417846       2.25291372      -1.09884738       0.00247116      -0.00162638      -0.00000912
H        2.30577170      -1.24284297      -1.06829296      -0.00669192       0.00103315      -0.00147478
H       -0.62671216      -2.53164152      -1.24513067      -0.00351664       0.00331174       0.00279686
H       -2.52774008       0.06094338      -1.15058604      -0.00180773       0.00475236       0.00333015
H       -1.99332730       1.62352440      -3.44666654       0.00029994       0.00031449       0.00243151
