45
Properties=species:S:1:pos:R:3:forces:R:3 charge=-1 spin=1 energy=-54314.58772374886 free_energy=-54314.58772374886 stress="1.2351276874542236 0.3174167275428772 -1.357182502746582 0.3174167275428772 0.48644861578941345 -0.5764611959457397 -1.357182502746582 -0.5764611959457397 1.7394306659698486" pbc="F F F"
C       -0.99505474      -1.03574324       1.55400000       0.07764457       0.20029914      -0.30470759
B       -0.28352308      -1.49620502       3.00716768       0.00205746       0.00592233       0.00218948
B        1.20839934      -0.54965665       3.10157322      -0.00156399      -0.01136232      -0.00252247
B        0.75952050       1.16368645       3.09942985       0.01206752      -0.00470762       0.00278752
B       -0.24981957      -0.01744686       3.98364960       0.00093107       0.00775221      -0.00358192
B       -1.65852063      -0.38420952       2.96315864       0.01005608       0.00647936       0.00240750
C       -1.40576447       0.50465460       1.56400000       0.30995357      -0.20203617      -0.28323391
B        0.69834411      -1.24223763       1.53534429      -0.02873693      -0.02005043       0.01390861
B        1.37254223       0.40465243       1.59607581      -0.00380830      -0.00894861       0.01701399
B       -0.03502175       1.49226900       1.54089307       0.00929305       0.00646767       0.01952815
B       -1.00087980       1.26341720       3.01637526       0.00716923       0.00596478      -0.00995415
C        1.14300000       0.92400000      -1.55300000      -0.45691520      -0.28211758       0.42887464
B        1.60333601       0.15561261      -2.96955294      -0.00499303      -0.00509556       0.00233333
B        0.63122745      -1.32003818      -3.03500241       0.01704136      -0.00208456       0.00850899
B       -1.07539391      -0.84940103      -3.08475898       0.01065205      -0.01480412      -0.00545855
B        0.13737382       0.12151933      -3.96713154      -0.00271442      -0.00454173       0.00364982
B        0.51002440       1.54815169      -2.97529000      -0.00518756      -0.01043954      -0.00201759
C       -0.40000000       1.32300000      -1.56800000       0.05369288       0.15986326      -0.00116171
B        1.29736752      -0.77230031      -1.46448493       0.02394561       0.02590996      -0.00925744
B       -0.35624437      -1.43269042      -1.54727936       0.01582809       0.00173187      -0.01660080
B       -1.43148407      -0.01630455      -1.55871623      -0.00038902      -0.01177455      -0.02530506
B       -1.14379208       0.91506905      -3.03768898      -0.00360707      -0.00625656       0.00453551
Co       0.00000000       0.00000000       0.00000000      -0.10177338       0.19750561       0.14921819
H       -1.66376075      -1.71228303       1.04712424       0.00906919      -0.00158042      -0.00496455
H       -0.46218784      -2.59731180       3.40239084       0.01028118       0.01192011      -0.00434629
H        2.15597272      -0.97653772       3.67043976       0.00374221       0.00684842      -0.00408130
H        1.38433483       1.99728039       3.66504875      -0.00047160       0.00798681      -0.00459533
H       -0.33950106      -0.04366683       5.16614440       0.00592950       0.00695927      -0.00574121
H       -2.76164105      -0.67320562       3.27567694       0.01225217       0.00370252      -0.00848627
H       -2.31828579       0.76695965       1.05368691       0.01921253       0.00586584       0.01354562
H        1.18313280      -2.24028337       1.11993622      -0.02389869      -0.00906488      -0.00106671
H        2.46766286       0.70298588       1.23792655      -0.00154175      -0.01596528      -0.02470542
H       -0.09787872       2.58013031       1.06114054       0.01157223      -0.00029264       0.03724105
H       -1.69442737       2.13715157       3.41419555       0.00086868       0.00148593      -0.00974273
H        1.81222286       1.59164604      -1.03640359      -0.00042757      -0.00824382       0.00315783
H        2.71270188       0.30082306      -3.35561024      -0.01188678      -0.01034386       0.01167697
H        1.05387376      -2.28963323      -3.56867371      -0.00125974      -0.00500840       0.00823922
H       -1.90650604      -1.47447923      -3.65372924      -0.00347043      -0.00119055       0.00201431
H        0.18247874       0.18240195      -5.15085846       0.00027782      -0.00811402       0.00586695
H        0.80280883       2.64452484      -3.30759400      -0.00064289      -0.01241572       0.00735352
H       -0.66104792       2.25982874      -1.10185513      -0.00584568      -0.01739294      -0.01675784
H        2.27270661      -1.26819888      -1.01037458       0.01228271       0.02342114       0.00870034
H       -0.67159330      -2.51450182      -1.16461133       0.01569475       0.00463830       0.02989147
H       -2.52795033       0.08467991      -1.10535133       0.00775072      -0.01676468      -0.03716984
H       -1.99565932       1.62079082      -3.46068701      -0.00013193      -0.00012811       0.00281550
