45
Properties=species:S:1:pos:R:3:forces:R:3 charge=-1 spin=1 energy=-242.28187561035156 free_energy=-242.28187561035156 stress="-7.760877451801207e-08 -1.588365172722206e-08 5.609551934071533e-08 -1.588365172722206e-08 -7.900975163011026e-08 8.946376084395524e-08 5.609551934071533e-08 8.946376084395524e-08 -1.6327211938005348e-07" pbc="F F F"
C       -1.23180491      -0.73861673       1.55400000      -0.21828327      -0.16908407       0.19128081
B       -0.68669733      -1.36886362       3.02857723      -0.00063695       0.00357722       0.00125073
B        1.00351915      -0.85726656       3.08901365       0.00036411       0.00216261      -0.00107108
B        1.02293435       0.92912793       3.07998881       0.00080399      -0.00379182      -0.00235262
B       -0.25972614       0.04734675       3.97855965       0.00191836      -0.00141157      -0.00182206
B       -1.69436648       0.06177262       3.01884052       0.00227080      -0.00354173       0.00398502
C       -1.22427092       0.85557624       1.56400000      -0.02136904       0.05176081       0.10225289
B        0.31591171      -1.38063835       1.52013603      -0.00050359      -0.00072345       0.00213914
B        1.42683768       0.03013788       1.60670888      -0.00242263      -0.00132152       0.00316241
B        0.34273510       1.45556713       1.53126271       0.00673662       0.00314060       0.00139208
B       -0.65499915       1.47520782       3.01982317       0.00509360       0.00054504       0.00590905
C        1.14300000       0.92400000      -1.55300000       0.14064375       0.03378785      -0.09176023
B        1.62428077       0.17929271      -2.98877726      -0.00272884       0.00184064      -0.00126213
B        0.67298175      -1.30872410      -3.01854173      -0.00211398       0.00023091      -0.00002551
B       -1.05274323      -0.84715255      -3.06881252       0.00409000      -0.00080439       0.00188512
B        0.16217261       0.12724217      -3.96169531       0.00108959      -0.00124417       0.00204273
B        0.52165942       1.53631361      -3.03288940       0.00225030      -0.00303678      -0.00407951
C       -0.40000000       1.32300000      -1.56800000      -0.12849811       0.23424861      -0.31244415
B        1.32354630      -0.73728999      -1.44848037       0.00101143       0.00165730      -0.00126150
B       -0.33197092      -1.43622988      -1.55692190       0.00275119       0.00119933      -0.00389884
B       -1.42512794      -0.01565618      -1.55546449      -0.00398681      -0.00693999      -0.00291860
B       -1.12162217       0.91888035      -3.04369221      -0.00131816      -0.00587542      -0.00747058
Co       0.00000000       0.00000000       0.00000000       0.22220160      -0.15662959       0.11220942
H       -2.05171097      -1.25172542       1.04189794      -0.00475876      -0.00210920      -0.00052169
H       -1.12887028      -2.40450322       3.42015780       0.00051689       0.00383674       0.00009714
H        1.82516770      -1.50826672       3.66086554      -0.00141374       0.00099882      -0.00109493
H        1.85559155       1.56185357       3.65528124      -0.00144067      -0.00203586      -0.00474064
H       -0.28726071       0.05079396       5.16846918       0.00096964       0.00207879      -0.00283697
H       -2.84176312       0.06999105       3.32425936       0.00165293       0.00123664      -0.00042757
H       -2.04069063       1.37958735       1.05740445      -0.00086894       0.00167379      -0.00605094
H        0.49994882      -2.48235511       1.09344299      -0.00038243      -0.00119130      -0.00059795
H        2.55262494       0.00855527       1.20327658      -0.00187241      -0.00128093      -0.00530543
H        0.56298244       2.52467725       1.04077997      -0.00094131       0.00153883      -0.00154791
H       -1.07676535       2.51595520       3.41961320       0.00073442       0.00241908      -0.00132577
H        1.84642096       1.58427329      -1.03770079       0.00243966       0.00665169       0.00512826
H        2.74808969       0.30489514      -3.36604954      -0.00295642       0.00066290       0.00053473
H        1.09072730      -2.29276277      -3.55031546       0.00057565       0.00163446       0.00055081
H       -1.87040516      -1.49394309      -3.65008977       0.00362514       0.00183300       0.00358306
H        0.18842642       0.12261782      -5.15173188      -0.00076954       0.00042404       0.00343962
H        0.82082853       2.63718177      -3.36203791      -0.00098094      -0.00144413       0.00125951
H       -0.69419627       2.27025515      -1.10450196      -0.00349227       0.00115803       0.00469513
H        2.31604115      -1.19888397      -0.96948323       0.00093726      -0.00038974       0.00113627
H       -0.61774719      -2.51526074      -1.12777208       0.00172679       0.00063413       0.00377349
H       -2.52850495       0.07289902      -1.09866471      -0.00122522       0.00147831       0.00165103
H       -1.99631206       1.60442535      -3.47493988      -0.00143971       0.00044514       0.00145833
