45
Properties=species:S:1:pos:R:3:forces:R:3 charge=-1 spin=1 energy=-54314.386725442586 free_energy=-54314.386725442586 stress="1.4404675960540771 0.04058504104614258 0.26502811908721924 0.04058504104614258 0.5525948405265808 -0.3930767774581909 0.26502811908721924 -0.3930767774581909 1.3522541522979736" pbc="F F F"
C        0.92805637       1.09617945       1.55400000      -0.07034836      -0.19239883       0.05205466
B        0.19815335       1.52342722       3.02057467      -0.00523710      -0.00011870      -0.01465189
B       -1.24207845       0.49770642       3.10619587       0.00274707      -0.00201472      -0.01045582
B       -0.70085091      -1.18696676       3.08455603       0.00368377      -0.00326975      -0.02806778
B        0.24211357       0.03832854       3.98392412      -0.00245009       0.00061428      -0.00614689
B        1.62819175       0.48618025       2.96788959       0.00034368       0.00258418       0.00333254
C        1.43467804      -0.41539010       1.56400000      -0.52568507       0.33954978      -0.29818574
B       -0.76816459       1.21747765       1.55926204       0.01656475       0.00252120       0.00156172
B       -1.35973854      -0.46334173       1.58274637      -0.00120697      -0.01674034       0.00677049
B        0.11161959      -1.47636051       1.51188266      -0.00083603      -0.01636326       0.00434547
B        1.05919765      -1.19106159       3.00775246       0.00098600       0.00096128      -0.00401375
C        1.14300000       0.92400000      -1.55300000      -0.44817433      -0.24131471       0.05265782
B        1.62288897       0.18097244      -2.99044039      -0.00321055      -0.00516374       0.01520280
B        0.66612724      -1.30610130      -3.06098072      -0.00681100       0.00406992       0.00879779
B       -1.04403519      -0.85186831      -3.09040334      -0.00519532       0.00215061       0.02637245
B        0.15380779       0.13541566      -3.97821453      -0.00372056       0.00331633       0.00600711
B        0.51364673       1.55717494      -2.97779138       0.00127917       0.00260606      -0.00056196
C       -0.40000000       1.32300000      -1.56800000       0.19561177       0.02451388       0.16992192
B        1.32276773      -0.76132026      -1.50950691      -0.00190296       0.01495348      -0.00720032
B       -0.32387371      -1.44188995      -1.55970264      -0.01502557      -0.00528080      -0.00961206
B       -1.41707338      -0.03327291      -1.54025152      -0.02066380       0.00056947      -0.01109094
B       -1.13115733       0.90611909      -3.03565798      -0.00218854       0.00331948       0.00509348
Co       0.00000000       0.00000000       0.00000000       0.88523066       0.01071756       0.04826395
H        1.57291222       1.82144570       1.08351260      -0.00372530       0.01536543       0.01264348
H        0.32500336       2.63208968       3.41796218       0.00303077      -0.00704676      -0.00714502
H       -2.21406973       0.86433146       3.67689161       0.00514835      -0.00270986      -0.01096143
H       -1.27355497      -2.06126831       3.64426016       0.00578707       0.01638759      -0.01534868
H        0.33129595       0.05476218       5.16642874      -0.00304163       0.00490048      -0.00378928
H        2.71455031       0.83463431       3.27872505       0.00473324       0.00294126       0.00013802
H        2.35988631      -0.63432082       1.05884521      -0.01218127       0.00428284       0.00896072
H       -1.29000143       2.19133072       1.11940949      -0.02207456       0.00970381      -0.01224749
H       -2.44383339      -0.81334814       1.25324642       0.01113112      -0.01104701      -0.02826070
H        0.23400931      -2.57376510       1.08856541       0.03447041       0.00778569      -0.02520825
H        1.79356613      -2.03410860       3.39512674       0.00039281       0.00022996       0.00836102
H        1.81873076       1.61019667      -1.06916400       0.01767584      -0.00389322      -0.01139875
H        2.73315823       0.34841321      -3.36858330      -0.01488151       0.00572898       0.00252115
H        1.09497631      -2.27337185      -3.59552980      -0.00809836       0.01267711       0.00225089
H       -1.87305109      -1.47844659      -3.66073266       0.00954022       0.01188171       0.01181341
H        0.18925673       0.20482636      -5.16155994      -0.00166769       0.00556782       0.00330039
H        0.79745840       2.65918840      -3.29852690      -0.00153001       0.00900452       0.00410033
H       -0.67567207       2.25605770      -1.10343921       0.00122766      -0.01399456      -0.00645080
H        2.30754078      -1.23438745      -1.04198229       0.00394755      -0.03660201       0.00708436
H       -0.61774333      -2.53706557      -1.21569654      -0.02177415       0.00857555       0.02812994
H       -2.52733948       0.05108567      -1.14019091       0.00257306       0.02690646       0.02191065
H       -1.99384583       1.60079078      -3.45145196      -0.00447449       0.00357139      -0.00079839
