45
Properties=species:S:1:pos:R:3:forces:R:3 charge=-1 spin=1 energy=-242.28775024414062 free_energy=-242.28775024414062 stress="-4.463938196863637e-08 1.1848606540354467e-08 -5.2606491607321004e-08 1.1848606540354467e-08 -9.302806347477599e-08 5.370264588577811e-08 -5.2606491607321004e-08 5.370264588577811e-08 -2.122322655395692e-07" pbc="F F F"
C        1.11702148       0.90286267       1.55400000       0.10907322       0.16969654       0.30006623
B        0.48072046       1.44143873       3.02597059      -0.00624634      -0.00069705       0.00665941
B       -1.12613742       0.70956407       3.08051223       0.00151153      -0.00285427      -0.00305824
B       -0.90212467      -1.06058520       3.05672708      -0.00195222       0.00372198       0.00028485
B        0.24105545      -0.02994070       3.97297227      -0.00381009       0.00034118      -0.00367850
B        1.67222815       0.15527214       3.02559092      -0.00181152       0.00092809       0.00728707
C        1.33142960      -0.67686425       1.56400000       0.02282771      -0.09439658       0.10419440
B       -0.50776274       1.34295505       1.54589775      -0.00493231       0.00081733       0.00299670
B       -1.40972778      -0.20622580       1.57380298      -0.00293788       0.00280233       0.00665835
B       -0.14630145      -1.46941277       1.48097788       0.00286519      -0.00059074      -0.00225992
B        0.83417156      -1.37768739       3.01429328      -0.00501207      -0.00121053       0.00590721
C        1.14300000       0.92400000      -1.55300000       0.09136048      -0.00500813      -0.21428594
B        1.61543572       0.19711588      -2.99955281      -0.00207036      -0.00522520      -0.00724301
B        0.67191069      -1.29407344      -3.04898128      -0.00415221       0.00135686       0.00192777
B       -1.05302529      -0.83723970      -3.07643777       0.00194582      -0.00126784       0.00005256
B        0.14297761       0.14969925      -3.97143045      -0.00314294      -0.00126565       0.00301738
B        0.50250049       1.54977197      -3.02770104      -0.00306375      -0.00025681      -0.00688195
C       -0.40000000       1.32300000      -1.56800000      -0.17088683       0.31086820      -0.24509954
B        1.34308717      -0.74123593      -1.50810317      -0.00099745      -0.00324514      -0.00170262
B       -0.30892786      -1.43366270      -1.56707172       0.00349178      -0.00291827      -0.00715570
B       -1.40444739      -0.02547973      -1.51940606      -0.00115699       0.00255038       0.00133463
B       -1.13180797       0.92418399      -3.04275769      -0.00153726      -0.00360342      -0.00470975
Co       0.00000000       0.00000000       0.00000000      -0.02026856      -0.38120753       0.05988159
H        1.88006651       1.52855820       1.08143903      -0.00090736      -0.00262885       0.00123738
H        0.78828468       2.51776010       3.43478643       0.00011953       0.00001657      -0.00001320
H       -2.03072654       1.23203579       3.65787451       0.00245634      -0.00248059      -0.00543504
H       -1.64888364      -1.81266166       3.60631935      -0.00023533       0.00205275      -0.00189262
H        0.26076918      -0.03572096       5.16291762      -0.00098767      -0.00007093      -0.00510362
H        2.80665012       0.30094866       3.34350092      -0.00020778      -0.00029956      -0.00017932
H        2.20610088      -1.09106752       1.05748347      -0.00427619       0.00312611       0.00161040
H       -0.85322108       2.39768795       1.09815469       0.00323614       0.00327251      -0.00127358
H       -2.53012818      -0.34932216       1.18173054       0.00203976       0.00279253      -0.00403661
H       -0.20721509      -2.57721742       1.04017872       0.00047906       0.00017136      -0.00231899
H        1.37903430      -2.36305084       3.40470895       0.00059799       0.00001870       0.00016265
H        1.85274914       1.59896101      -1.06603096      -0.00261056      -0.00135684      -0.00144230
H        2.73112371       0.34450764      -3.39079204      -0.00032577       0.00178875      -0.00202364
H        1.08230829      -2.26896568      -3.60131752      -0.00331395       0.00296786       0.00167735
H       -1.88060486      -1.48370815      -3.64416302       0.00092660       0.00032828       0.00200797
H        0.16599566       0.15797931      -5.16127382      -0.00245142       0.00132837       0.00455227
H        0.79641449       2.65416085      -3.34889501      -0.00161558       0.00056314       0.00095370
H       -0.70558936       2.25707214      -1.08724868       0.00195809      -0.00355832      -0.00068355
H        2.33066404      -1.22110890      -1.03674720       0.00387007       0.00085900      -0.00241232
H       -0.60298977      -2.52358406      -1.17683786       0.00287381       0.00336108       0.00639669
H       -2.51843987       0.06500363      -1.09594830      -0.00050486      -0.00138967       0.00180228
H       -2.02052418       1.60281805      -3.45540268      -0.00021830      -0.00019777       0.00222093
