45
Properties=species:S:1:pos:R:3:forces:R:3 charge=-1 spin=1 energy=-242.231201171875 free_energy=-242.231201171875 stress="-7.338273633195058e-08 3.825486061259653e-08 3.5600837833271726e-08 3.825486061259653e-08 -5.750277409788396e-08 1.2409235417010223e-08 3.5600837833271726e-08 1.2409235417010223e-08 -2.0086605445612804e-07" pbc="F F F"
C       -0.97858282       1.05131996       1.55400000      -0.22548632       0.12969396       0.22198129
B       -1.48045623       0.36922960       3.01943014      -0.00042785       0.00072585      -0.00052965
B       -0.63409860      -1.17876764       3.06721028      -0.00064468       0.00000300      -0.00015873
B        1.11525864      -0.82838928       3.05988542       0.00023152      -0.00012031      -0.00064030
B       -0.00666351       0.23279680       3.96901587      -0.00026042       0.00013415       0.00010066
B       -0.28811466       1.65006967       3.02110598      -0.00034914      -0.00014276      -0.00051968
C        0.58233961       1.37540197       1.56400000       0.07883152      -0.00465536       0.16822602
B       -1.29593429      -0.60131649       1.51595251      -0.00179279       0.00051177      -0.00032739
B        0.31167569      -1.38547137       1.56248905      -0.00101981       0.00034860      -0.00007594
B        1.49887245      -0.03082200       1.52467019       0.00238055      -0.00041121      -0.00191030
B        1.30583426       0.92618107       3.01869371       0.00028622       0.00040922      -0.00055127
C        1.14300000       0.92400000      -1.55300000       0.13699058      -0.01655707      -0.17885810
B        1.61363375       0.17282313      -2.98932414       0.00092762       0.00039520       0.00186021
B        0.66474054      -1.31580395      -3.01365793       0.00153394      -0.00103556       0.00137998
B       -1.05810607      -0.85715522      -3.05364416       0.00029159      -0.00079741       0.00094619
B        0.14582466       0.11434348      -3.95670300       0.00131636      -0.00086813       0.00005207
B        0.50843567       1.52724860      -3.03110464       0.00112413      -0.00103282       0.00071701
C       -0.40000000       1.32300000      -1.56800000      -0.18011865       0.21938270      -0.27358180
B        1.33316286      -0.74327513      -1.46235270       0.00254485       0.00002355       0.00156987
B       -0.32105119      -1.42922165      -1.52373667       0.00094204      -0.00028938       0.00084116
B       -1.42839798      -0.01472066      -1.54309472      -0.00112110      -0.00026760       0.00115737
B       -1.13089821       0.90710591      -3.03725132       0.00047946       0.00006339       0.00057790
Co       0.00000000       0.00000000       0.00000000       0.18214726      -0.29711765       0.05621032
H       -1.65854813       1.75659661       1.06507368       0.00316177      -0.00328938       0.00165675
H       -2.58061526       0.59132104       3.42010914      -0.00011957       0.00016486      -0.00039807
H       -1.09475907      -2.12591377       3.62920307      -0.00099091       0.00069234       0.00005537
H        1.90578272      -1.52503252       3.62056089      -0.00037661       0.00022914      -0.00042631
H       -0.00821236       0.25010410       5.15858502      -0.00000760       0.00017478      -0.00021012
H       -0.51659097       2.77047039       3.34019940      -0.00007821      -0.00007248      -0.00028011
H        0.93338818       2.28877365       1.07318570      -0.00233567      -0.00717142       0.00420938
H       -2.33228022      -1.00334868       1.07601315       0.00043295       0.00233276      -0.00137372
H        0.52899473      -2.49635969       1.17534352      -0.00121217      -0.00151729       0.00316748
H        2.59872902      -0.01506495       1.05952500      -0.00614597      -0.00189298      -0.00698912
H        2.23494363       1.54993243       3.42837664       0.00010782      -0.00035584      -0.00076547
H        1.85661738       1.59070840      -1.05983385      -0.00367312      -0.00298865      -0.00167429
H        2.73099344       0.30662810      -3.38106758       0.00063899      -0.00112216       0.00155121
H        1.07367621      -2.30299570      -3.54578461       0.00195178      -0.00075002       0.00171119
H       -1.87882245      -1.51243947      -3.62080420       0.00127058      -0.00100814       0.00027706
H        0.16598516       0.10973523      -5.14628796       0.00149277      -0.00173843       0.00003976
H        0.80355211       2.62705358      -3.36702081       0.00069428      -0.00124651      -0.00058284
H       -0.70157655       2.27248826      -1.11243579       0.00154680      -0.00625526      -0.00438964
H        2.32961907      -1.20554361      -0.99454977      -0.00151058       0.00258585       0.00372506
H       -0.60606969      -2.51495313      -1.11074745       0.00106755      -0.00200091      -0.00238833
H       -2.53508533       0.07744296      -1.10027749       0.00447050      -0.00192001       0.00494767
H       -2.00714179       1.59082264      -3.46769254       0.00080733      -0.00124592      -0.00032988
