45
Properties=species:S:1:pos:R:3:forces:R:3 charge=-1 spin=1 energy=-242.28103637695312 free_energy=-242.28103637695312 stress="-5.862650809262959e-08 2.572614299367615e-08 -2.3015878980459092e-08 2.572614299367615e-08 -8.593603695317142e-08 1.0271533312788961e-07 -2.3015878980459092e-08 1.0271533312788961e-07 -1.3184491365336726e-07" pbc="F F F"
C        0.73861673      -1.23180491       1.55400000       0.16494329      -0.11689097       0.22473043
B        1.36175703      -0.68915253       3.03094951       0.00124051       0.00240947      -0.00105406
B        0.85476943       1.00670958       3.09110374      -0.00039151       0.00079706      -0.00116368
B       -0.92885261       1.02628689       3.07377899      -0.00062850      -0.00076151       0.00054202
B       -0.05967493      -0.25824695       3.97887684       0.00083311       0.00079127      -0.00027877
B       -0.07315979      -1.69519710       3.02268693       0.00020454       0.00111059       0.00017212
C       -0.85557624      -1.22427092       1.56400000      -0.08968998      -0.05178577      -0.00344947
B        1.39148536       0.32405062       1.55093964       0.00224438       0.00227559       0.00138676
B       -0.02102228       1.42623270       1.60282160       0.00062223      -0.00102293      -0.00110868
B       -1.44856609       0.34263968       1.51070312       0.00593942      -0.00208164      -0.00627886
B       -1.47936786      -0.65406522       3.02160297       0.00146998      -0.00161798       0.00118417
C        1.14300000       0.92400000      -1.55300000       0.12911439      -0.00520664      -0.08768331
B        1.62524725       0.19380182      -2.99314436       0.00048222      -0.00143217       0.00151338
B        0.67713372      -1.29937566      -3.03546391      -0.00045395      -0.00037175       0.00089268
B       -1.04547272      -0.83787405      -3.08277334      -0.00064871       0.00139330      -0.00056106
B        0.16214601       0.14809057      -3.96992240       0.00098609       0.00014802      -0.00005081
B        0.51860590       1.55083565      -3.03067687       0.00063281      -0.00066932      -0.00002682
C       -0.40000000       1.32300000      -1.56800000      -0.14205572       0.28106579      -0.21942432
B        1.33159852      -0.74590274      -1.48635445       0.00192866      -0.00186972      -0.00325888
B       -0.32255180      -1.43408635      -1.57695215       0.00113894       0.00080884      -0.00009263
B       -1.41763852      -0.01515390      -1.55259170       0.00594786       0.00154355       0.00522900
B       -1.11822458       0.92998751      -3.05365903       0.00202639       0.00156830      -0.00076529
Co       0.00000000       0.00000000       0.00000000      -0.09810705      -0.11137640       0.09230269
H        1.25403010      -2.05143923       1.04465061      -0.00085074      -0.00015498       0.00409171
H        2.38981683      -1.14026640       3.43192917       0.00208677       0.00236759      -0.00201412
H        1.49921998       1.82517934       3.67387943       0.00018596       0.00141192      -0.00249576
H       -1.56794746       1.86280499       3.63641945      -0.00000171       0.00012137       0.00229790
H       -0.06826704      -0.28242297       5.16910889       0.00323230       0.00060857      -0.00007823
H       -0.08643058      -2.84269601       3.32768928       0.00205939       0.00108874       0.00033878
H       -1.37787745      -2.02975396       1.03972579       0.00293501       0.00536049       0.00150037
H        2.47824258       0.51520425       1.08974410      -0.00124824       0.00058317       0.00338002
H       -0.01719735       2.55022960       1.18897656      -0.00221586       0.00049374       0.00055298
H       -2.53734022       0.55576281       1.06982270       0.00133060      -0.00115172       0.00070331
H       -2.52883447      -1.06529430       3.41001057       0.00155939      -0.00133907       0.00237638
H        1.84722961       1.58044336      -1.03328598      -0.00199310      -0.00254055      -0.00294907
H        2.74621846       0.33247871      -3.37385316       0.00099376      -0.00225358       0.00251009
H        1.09295608      -2.27501725      -3.58275710      -0.00007823      -0.00079249       0.00161739
H       -1.86651943      -1.48254087      -3.66155135       0.00004286       0.00071368      -0.00288843
H        0.18937338       0.15059872      -5.16004984       0.00294149      -0.00070293      -0.00025837
H        0.81472200       2.65595544      -3.34810733       0.00181209      -0.00158441      -0.00003020
H       -0.69973924       2.25781723      -1.08347617      -0.00011011      -0.00298205      -0.00062241
H        2.30520322      -1.21349384      -0.97488583      -0.00062928       0.00101171      -0.00684391
H       -0.62481234      -2.50710049      -1.14043345      -0.00437911      -0.00027962      -0.00176709
H       -2.53881917       0.08308573      -1.15287558       0.00230112       0.00013515      -0.00032859
H       -2.00090041       1.61276047      -3.47300739       0.00224636       0.00105977      -0.00184923
