45
Properties=species:S:1:pos:R:3:forces:R:3 charge=-1 spin=1 energy=-242.28329467773438 free_energy=-242.28329467773438 stress="-7.766052334545748e-08 -1.4607638654240418e-08 5.583296669442461e-08 -1.4607638654240418e-08 -7.609973096123213e-08 8.684289554139468e-08 5.583296669442461e-08 8.684289554139468e-08 -1.632380985938653e-07" pbc="F F F"
C       -1.25683188      -0.69517741       1.55400000      -0.22553471      -0.16133405       0.19095048
B       -0.73405166      -1.34406436       3.02857723      -0.00052482       0.00324627       0.00161566
B        0.97298966      -0.89176665       3.08901365       0.00023673       0.00170420       0.00005278
B        1.05473730       0.89286203       3.07998881       0.00056337      -0.00346448      -0.00207020
B       -0.25791554       0.05638222       3.97855965       0.00213851      -0.00157443      -0.00109536
B       -1.69117848       0.12086753       3.01884052       0.00229383      -0.00283714       0.00312344
C       -1.19366595       0.89778149       1.56400000      -0.01646620       0.05036937       0.10409960
B        0.26753568      -1.39082246       1.52013603       0.00013911      -0.00002632      -0.00209685
B        1.42702028      -0.01967640       1.60670888      -0.00086406      -0.00128318      -0.00080995
B        0.39332487       1.44271916       1.53126271       0.00493320       0.00176632       0.00263172
B       -0.60311613       1.49716831       3.01982317       0.00502382       0.00054979       0.00457058
C        1.14300000       0.92400000      -1.55300000       0.14064322       0.03581017      -0.09175794
B        1.62428077       0.17929271      -2.98877726      -0.00222328       0.00174425      -0.00161422
B        0.67298175      -1.30872410      -3.01854173      -0.00166732       0.00017805      -0.00107245
B       -1.05274323      -0.84715255      -3.06881252       0.00375943      -0.00074808       0.00133417
B        0.16217261       0.12724217      -3.96169531       0.00104206      -0.00162442       0.00129595
B        0.52165942       1.53631361      -3.03288940       0.00149152      -0.00285742      -0.00319889
C       -0.40000000       1.32300000      -1.56800000      -0.12801224       0.22969258      -0.31304237
B        1.32354630      -0.73728999      -1.44848037       0.00055563       0.00070077       0.00222760
B       -0.33197092      -1.43622988      -1.55692190       0.00211938       0.00005549       0.00066851
B       -1.42512794      -0.01565618      -1.55546449      -0.00290599      -0.00533547      -0.00307867
B       -1.12162217       0.91888035      -3.04369221      -0.00146147      -0.00550409      -0.00601940
Co       0.00000000       0.00000000       0.00000000       0.22696826      -0.16489910       0.11197823
H       -2.09414571      -1.17935922       1.04189794      -0.00565895       0.00043900      -0.00004604
H       -1.21209855      -2.36364146       3.42015780       0.00090253       0.00399032       0.00022861
H        1.77141811      -1.57104536       3.66086554      -0.00148469       0.00121476      -0.00109231
H        1.90896908       1.49614292       3.65528124      -0.00162417      -0.00198636      -0.00462444
H       -0.28531303       0.06078827       5.16846918       0.00106420       0.00200685      -0.00306055
H       -2.83758935       0.16912452       3.32425936       0.00186086       0.00110644      -0.00059961
H       -1.99130059       1.44996602       1.05740445      -0.00068254       0.00319476      -0.00528049
H        0.41301132      -2.49829089       1.09344299       0.00030270      -0.00056355       0.00162882
H        2.55136852      -0.08053526       1.20327658      -0.00353620      -0.00155613      -0.00006367
H        0.65074945       2.50349148       1.04077997       0.00049149       0.00110300      -0.00286876
H       -0.98830385       2.55200111       3.41961320       0.00077246       0.00218335      -0.00151078
H        1.84642096       1.58427329      -1.03770079       0.00053474       0.00811659       0.00422834
H        2.74808969       0.30489514      -3.36604954      -0.00308311       0.00044761       0.00038163
H        1.09072730      -2.29276277      -3.55031546       0.00047967       0.00172092       0.00050911
H       -1.87040516      -1.49394309      -3.65008977       0.00364164       0.00192015       0.00347555
H        0.18842642       0.12261782      -5.15173188      -0.00074754       0.00039483       0.00358121
H        0.82082853       2.63718177      -3.36203791      -0.00095984      -0.00155678       0.00138718
H       -0.69419627       2.27025515      -1.10450196      -0.00477628       0.00206259       0.00383271
H        2.31604115      -1.19888397      -0.96948323       0.00021046      -0.00093292      -0.00133133
H       -0.61774719      -2.51526074      -1.12777208       0.00248041       0.00209320      -0.00080978
H       -2.52850495       0.07289902      -1.09866471      -0.00116267      -0.00017171       0.00169616
H       -1.99631206       1.60442535      -3.47493988      -0.00127384       0.00044365       0.00164591
