45
Properties=species:S:1:pos:R:3:forces:R:3 charge=-1 spin=1 energy=-54314.52326108712 free_energy=-54314.52326108712 stress="-0.0012118234299123287 0.16328921914100647 0.042579181492328644 0.16328921914100647 0.29594215750694275 0.07855235040187836 0.042579181492328644 0.07855235040187836 -0.947778582572937" pbc="F F F"
C       -0.45968944      -1.39965006       1.44705289       0.02786815      -0.01370721       0.02239833
B        0.34196612      -1.60415712       2.92429361       0.00661174       0.00730761      -0.01906519
B        1.31689236      -0.13886816       3.10709543      -0.00688047      -0.00594553      -0.00555066
B        0.21196542       1.24064280       3.14540917       0.00580860       0.00415414       0.00505896
B       -0.25122362      -0.28846846       3.94664034      -0.00213180       0.00393795       0.00885065
B       -1.35826825      -1.14687103       2.85403208      -0.00173787       0.00606001       0.00837080
C       -1.45185771      -0.16632779       1.48762716      -0.00723652      -0.01115622      -0.02060533
B        1.16340231      -0.90878044       1.50841174      -0.00318341      -0.01518946       0.02510628
B        1.10727612       0.86605057       1.63600000      -0.02077615      -0.05649080       0.08184812
B       -0.61457537       1.30237236       1.57469064      -0.03463745       0.03090700      -0.01455443
B       -1.43410293       0.61625651       2.98924176       0.00198409       0.01619077      -0.00320512
C        1.07748986       0.98127795      -1.45331626       0.02602632      -0.01969877      -0.01408087
B        1.63484790       0.31282221      -2.90624523      -0.00201556      -0.01218805       0.02027863
B        0.74802968      -1.21002316      -3.06979171       0.00316699       0.01049263       0.00596975
B       -0.97533847      -0.82253393      -3.14744404       0.00001682      -0.00406235      -0.00605613
B        0.21025881       0.24507992      -3.95264514      -0.00193013       0.00157053      -0.00755371
B        0.47815816       1.64225933      -2.88820427      -0.00404812       0.00145106      -0.00930065
C       -0.46663977       1.33144906      -1.52939383       0.00472090       0.01312057       0.02581182
B        1.34373703      -0.69676396      -1.47099052       0.01329356       0.00980447      -0.02513943
B       -0.27500000      -1.43300000      -1.61500000       0.11210497       0.19867170      -0.05417776
B       -1.41656931      -0.06985514      -1.60033425      -0.04277603       0.01963147       0.01298879
B       -1.13691145       0.93380956      -3.03383260      -0.01337248      -0.00970197       0.00243049
Co       0.00000000       0.00000000       0.00000000       0.05317223      -0.27202863      -0.05258159
H       -0.78277775      -2.26951472       0.90119885      -0.00188621       0.00457873       0.02089061
H        0.62452166      -2.70270668       3.25953043      -0.01273609       0.00592986       0.02261369
H        2.34867824      -0.17115134       3.68831307      -0.00693961       0.00484351       0.01121631
H        0.42534652       2.22960816       3.76212817       0.00449430       0.01197635       0.00500185
H       -0.35168745      -0.40696614       5.12148952      -0.00587028       0.01465809       0.01883595
H       -2.25621267      -1.87538053       3.09499448      -0.01540850       0.00859460       0.01447862
H       -2.38949698      -0.27782097       0.97075572      -0.00137051       0.02480429       0.01300923
H        2.01614109      -1.61582976       1.09491712      -0.01134454       0.01095419       0.03627377
H        1.99912778       1.58992806       1.32473824       0.01199318       0.01178455       0.00290783
H       -1.11462333       2.29645947       1.15605015       0.00803375      -0.01192297       0.00341558
H       -2.43882456       1.10675387       3.37776222       0.00261261       0.01465265       0.00886500
H        1.70989761       1.66706737      -0.91544045      -0.00305464      -0.00060814      -0.01762045
H        2.75137010       0.53140852      -3.22967651      -0.00981882       0.00865571      -0.01950466
H        1.24096664      -2.13532113      -3.62165702      -0.00680352       0.00567335      -0.01054967
H       -1.76188604      -1.46018620      -3.76301258      -0.00716921      -0.00663203      -0.00531417
H        0.29262584       0.35978676      -5.12935521      -0.01275405       0.00090974      -0.01639334
H        0.74325374       2.76184627      -3.15469399      -0.01061344       0.01317747      -0.01225055
H       -0.78790338       2.23565561      -1.04113447      -0.02044593      -0.00963671      -0.01151615
H        2.34642107      -1.14276653      -1.03044687      -0.01499741       0.00367780      -0.03549716
H       -0.53918333      -2.54351381      -1.28035252      -0.00613758      -0.01313349      -0.00508406
H       -2.53688345      -0.04573951      -1.20339673       0.01542574       0.00009334      -0.00360258
H       -2.01192502       1.61136333      -3.45367485      -0.00925731      -0.00616173      -0.00741760
