45
Properties=species:S:1:pos:R:3:forces:R:3 charge=-1 spin=1 energy=-54314.60972120064 free_energy=-54314.60972120064 stress="-0.07432181388139725 0.02979753538966179 0.028404874727129936 0.02979753538966179 -0.1780596375465393 0.05447738990187645 0.028404874727129936 0.05447738990187645 0.05936557054519653" pbc="F F F"
C        0.77795894      -1.23657254       1.46207355      -0.01392431      -0.00922477      -0.00917170
B        1.42442079      -0.74443524       2.95262235       0.00112820      -0.00019555      -0.01941850
B        0.91617674       0.94182886       3.12387421      -0.00051399      -0.00782676       0.00058367
B       -0.85404871       0.97420524       3.12170627      -0.00160587      -0.00108223       0.00840979
B        0.00798788      -0.35691231       3.94302293      -0.00520553      -0.00884836       0.00153558
B       -0.01825115      -1.75800024       2.85144185      -0.00276022      -0.00122213      -0.01440509
C       -0.81194521      -1.20785316       1.46034451      -0.00362267      -0.00166141       0.00534422
B        1.43198859       0.32207946       1.53687562      -0.00841694       0.00945626       0.00313600
B        0.03850093       1.40521233       1.63600000      -0.06844752       0.18859893      -0.03826202
B       -1.40934350       0.37949770       1.54016011      -0.01327299      -0.01430588       0.00616413
B       -1.42502412      -0.69042633       2.95380334      -0.00365478      -0.00300594       0.00974728
C        1.07226845       0.97460100      -1.45767093      -0.00856187       0.01057378       0.00935458
B        1.60856493       0.30938519      -2.92585962       0.00071900      -0.00023872       0.02246860
B        0.71813851      -1.21255066      -3.08474229       0.00196550       0.00950103       0.00043870
B       -1.00912009      -0.82438251      -3.12247649      -0.00130477       0.00367291      -0.00796272
B        0.16021684       0.24808541      -3.94256520      -0.00377208       0.01248943      -0.00072400
B        0.44643740       1.63816311      -2.87387860      -0.00046199       0.00338884       0.01348690
C       -0.48107165       1.32445599      -1.49147988      -0.00037799       0.00128276      -0.00536742
B        1.33433798      -0.69972570      -1.49645506      -0.00983536      -0.00745644      -0.00121535
B       -0.27500000      -1.43300000      -1.61500000      -0.04045080       0.06375347       0.04776068
B       -1.43415484      -0.08324495      -1.56104994      -0.01063668       0.01665554      -0.00696088
B       -1.17070327       0.93114948      -2.99093819      -0.00426619       0.00433362      -0.01096818
Co       0.00000000       0.00000000       0.00000000       0.26159382      -0.29184061      -0.02286835
H        1.25196371      -2.03991829       0.92456697      -0.01299413      -0.01728760       0.00087883
H        2.43599253      -1.23665881       3.32022907      -0.01165495      -0.01483801      -0.00334597
H        1.58129768       1.71991242       3.72124144       0.00949490      -0.01176403      -0.00933091
H       -1.49379974       1.77042056       3.72228920       0.00883620       0.01432883       0.01057609
H        0.00462666      -0.51043216       5.11859726      -0.00227329       0.00241809       0.00676029
H       -0.03706970      -2.91290513       3.10079221      -0.02163999       0.00577141       0.00169881
H       -1.31303004      -2.00197663       0.93169583      -0.01475064       0.01570263       0.00710246
H        2.50613709       0.54746872       1.08298896       0.01391440      -0.01657482       0.00244331
H        0.05683931       2.54973581       1.29881559       0.00887142      -0.00058931       0.00513118
H       -2.47932839       0.64247821       1.10698037       0.00815604       0.01170210       0.00723320
H       -2.44837489      -1.15079807       3.32845440      -0.01512746       0.01523088       0.00806614
H        1.71601545       1.65359250      -0.92478720      -0.00796170       0.01888103      -0.00005866
H        2.71525860       0.53895697      -3.27711320      -0.01075417       0.01807720       0.00187458
H        1.19461065      -2.13605381      -3.65493067       0.00972251       0.01148725       0.00787600
H       -1.80913028      -1.45532446      -3.72763324       0.00372057      -0.01222151      -0.00823065
H        0.21622332       0.37453081      -5.12004962      -0.00606317       0.00170731      -0.00542257
H        0.70685803       2.75822237      -3.14547382      -0.02194854       0.00298177       0.00025147
H       -0.79053184       2.22740766      -0.99072310      -0.01617374      -0.01347863      -0.00525688
H        2.31597430      -1.16306671      -1.01480506       0.02039644       0.01177417      -0.00464663
H       -0.53324292      -2.54002292      -1.25453119       0.00894266      -0.00103838      -0.00649147
H       -2.54389596      -0.07636853      -1.14874922       0.00522348      -0.01209572      -0.00370943
H       -2.04814028       1.61157523      -3.39881084      -0.02025094      -0.00697256      -0.00450504
