45
Properties=species:S:1:pos:R:3:forces:R:3 charge=-1 spin=1 energy=-242.23280334472656 free_energy=-242.23280334472656 stress="-2.115010566683395e-08 -7.89942444789915e-10 -1.5875841086199216e-08 -7.89942444789915e-10 7.895109632727326e-08 2.003240062720124e-08 -1.5875841086199216e-08 2.003240062720124e-08 4.919893825672261e-08" pbc="F F F"
C       -0.70058760       1.29564273       1.58622518      -0.02312885       0.00778890       0.01303568
B       -1.34720151       0.77926391       3.04481866      -0.01788249       0.00469194       0.00950735
B       -0.91077054      -0.93029502       3.12056741      -0.00303662      -0.00590195       0.00673966
B        0.86591426      -1.03170242       3.12219372       0.00742209       0.00250383      -0.00644803
B        0.04886951       0.29758379       4.00433155       0.00402682      -0.00163734       0.00766782
B        0.13139150       1.72066270       3.02376111       0.00505655       0.00447765       0.02517222
C        0.90250186       1.20566253       1.58696786       0.02096627      -0.03879240       0.01574281
B       -1.39315004      -0.23369926       1.55036337       0.00193831       0.01080479      -0.02851921
B       -0.03850093      -1.40521233       1.63600000      -0.04730464       0.14690763      -0.16817620
B        1.41798466      -0.38923736       1.55017774       0.02307031       0.01716963       0.00620006
B        1.49187967       0.61603415       3.04368162       0.00292413       0.00812782      -0.00567982
C        1.14377080       0.95682818      -1.58587326       0.03339886      -0.01044947      -0.02459958
B        1.62225412       0.24463227      -3.02812162       0.01683671       0.00979941       0.00087378
B        0.69476978      -1.25428477      -3.09233600       0.00251079      -0.00577441      -0.00245085
B       -1.02936278      -0.81802555      -3.11578218      -0.00700557      -0.00119944       0.00470376
B        0.15642646       0.19398449      -4.00172350      -0.00555485      -0.00177830      -0.00820823
B        0.49979236       1.58946027      -3.03862275      -0.00408498       0.00898330      -0.01822487
C       -0.41663532       1.35485660      -1.60905770       0.00154975      -0.00478232      -0.01223582
B        1.33834789      -0.70637921      -1.51563326       0.00053170       0.02870927       0.02764066
B       -0.27500000      -1.43300000      -1.61500000      -0.04047070       0.22984651       0.18317860
B       -1.38848537      -0.01779771      -1.56584121      -0.02350482       0.00727718      -0.01665632
B       -1.13384825       0.94583585      -3.06628967      -0.00949573       0.00289091      -0.00325207
Co       0.00000000       0.00000000       0.00000000       0.18438396      -0.27715600      -0.00335126
H       -1.17737733       2.14067700       1.08129411      -0.00516787      -0.00368088      -0.00656566
H       -2.35771551       1.27471922       3.43953297       0.00850382      -0.01458878       0.00213461
H       -1.60046931      -1.71138426       3.70284210      -0.00504960      -0.01114095      -0.00266754
H        1.46681642      -1.88451060       3.70298104      -0.00637557      -0.00315060      -0.00258166
H        0.05077434       0.35147355       5.19302921       0.00063748      -0.01362500       0.00034367
H        0.20049841       2.86903206       3.31710027      -0.00750155      -0.00182986       0.01749529
H        1.47077430       1.99099904       1.08112388       0.00848775      -0.00563707      -0.00823461
H       -2.49746336      -0.38581695       1.12016682      -0.00183646      -0.00037318      -0.00534784
H       -0.10255131      -2.53180969       1.24537209      -0.00743864      -0.02691655      -0.02178577
H        2.49937538      -0.66990352       1.12989616       0.00230418       0.01795721      -0.01679360
H        2.55422278       0.98944898       3.43662302      -0.01714519      -0.00548332       0.00338084
H        1.84986623       1.62489902      -1.08416608      -0.02401491      -0.00857161       0.00685702
H        2.74017421       0.40233972      -3.41372550      -0.02214594      -0.00781850       0.00497711
H        1.12592530      -2.21143529      -3.66097816       0.00176775      -0.00942732       0.00711080
H       -1.85117701      -1.45969543      -3.69734030       0.00170273      -0.00839753       0.00382870
H        0.18098738       0.23182206      -5.19072969      -0.00368182      -0.01707188      -0.00269574
H        0.78879817       2.69975719      -3.34516687      -0.00570488      -0.00851011      -0.02092829
H       -0.72427413       2.28497703      -1.12319716      -0.03305759       0.00899573      -0.00587066
H        2.34738846      -1.17511527      -1.08548071       0.00330904       0.00345321       0.03576963
H       -0.55927237      -2.51671424      -1.20307898      -0.00351474      -0.02014065       0.02503723
H       -2.50475728       0.04156659      -1.14371838      -0.00845025       0.00482864      -0.00459515
H       -2.02738658       1.61815170      -3.47996285       0.00122516      -0.01137790      -0.01152827
