45
Properties=species:S:1:pos:R:3:forces:R:3 charge=-1 spin=1 energy=-54314.47427083748 free_energy=-54314.47427083748 stress="-0.26643437147140503 0.005174379330128431 -0.14959180355072021 0.005174379330128431 -0.20290760695934296 0.1437813937664032 -0.14959180355072021 0.1437813937664032 2.603006362915039" pbc="F F F"
C       -1.29731934       0.65953089       1.52810715       0.01251948       0.02196755      -0.00638846
B       -1.53934063      -0.09727952       3.01984174      -0.01106897      -0.00096249      -0.01154467
B       -0.22158305      -1.26088968       3.14575065      -0.01598661       0.00133995      -0.00249276
B        1.30438556      -0.35894617       3.10090883      -0.00952173      -0.00847277      -0.00123221
B       -0.09973733       0.31595581       3.97295954      -0.01042269       0.00126466      -0.00977703
B       -0.85192213       1.52541384       2.91572039       0.00087051       0.00054898      -0.01031944
C        0.05655011       1.46661026       1.49444249       0.02084976      -0.00271635       0.00946761
B       -1.03104339      -1.01329226       1.56561185      -0.00475889       0.02191020      -0.03723111
B        0.72044301      -1.20708984       1.63600000       0.30280301      -0.09243662      -0.42581877
B        1.40243524       0.43763333       1.51322460       0.01275119      -0.02104520       0.02625271
B        0.91060100       1.35514158       2.95876366      -0.00610134      -0.00551165      -0.00589112
C        1.01995398       0.99554752      -1.56155059      -0.02100996       0.01719829       0.00879526
B        1.50552755       0.31848071      -3.03151797       0.01015379       0.00367849       0.01188199
B        0.64174778      -1.21468361      -3.12217836       0.01445541       0.00797640       0.00222641
B       -1.09610801      -0.86051983      -3.09692584       0.01142686      -0.00383941       0.00238398
B        0.01531919       0.21285360      -3.99179969       0.00855720       0.00676114       0.01026473
B        0.32453376       1.62991188      -2.97128393      -0.00199920       0.00192056       0.01066290
C       -0.52301246       1.31602768      -1.54571141      -0.01834700      -0.00826606      -0.00994904
B        1.31323854      -0.67217181      -1.54904754      -0.00219976       0.02688331       0.03469168
B       -0.27500000      -1.43300000      -1.61500000      -0.26113990      -0.11077495       0.50597811
B       -1.45583729      -0.09787360      -1.52931012      -0.00570959      -0.02278356      -0.02618945
B       -1.28536133       0.89095776      -3.00221373       0.00719536      -0.00356331       0.00629667
Co       0.00000000       0.00000000       0.00000000      -0.04353743       0.18148887      -0.07423469
H       -2.15004688       1.09115448       1.02872619       0.02418334       0.02148892      -0.02733951
H       -2.64182269      -0.21122293       3.43354012      -0.02229557      -0.00013493      -0.02813652
H       -0.35655622      -2.27156707       3.74733228      -0.00894520      -0.00630217      -0.00748087
H        2.28385190      -0.70898026       3.66901801      -0.00984143       0.00084156      -0.00618059
H       -0.13384234       0.43958147       5.15235775      -0.01997092      -0.00013431      -0.01337908
H       -1.42483500       2.52312273       3.19145962      -0.00816277      -0.00398975      -0.02550517
H        0.05363509       2.41878990       0.98501638       0.02817710       0.00077866       0.01840805
H       -1.85179471      -1.76645576       1.16171759      -0.00218454       0.01238008      -0.03668768
H        1.30072146      -2.18802036       1.30389459      -0.00388472      -0.00400845      -0.00354060
H        2.42869823       0.79873611       1.03611228       0.00632645      -0.03015146      -0.00144262
H        1.56000995       2.28217591       3.30962952      -0.01386888      -0.00674516      -0.01345174
H        1.68173622       1.69578880      -1.07730536      -0.02855325       0.01498250       0.02246908
H        2.58729521       0.55966346      -3.44537121       0.02075993       0.00869102       0.02904817
H        1.10370603      -2.14103910      -3.69672090       0.01244916      -0.00203587       0.00966746
H       -1.90531312      -1.52565798      -3.65142847       0.01159029       0.00386492       0.00505747
H        0.01321539       0.30940993      -5.17425872       0.02095388       0.00522550       0.01357564
H        0.54088954       2.75247536      -3.27556015       0.00967532       0.00020409       0.02254058
H       -0.83443734       2.23149269      -1.06491845      -0.02973499      -0.00960438      -0.01857758
H        2.33242333      -1.10413030      -1.12600469      -0.00185296       0.01590256       0.03296218
H       -0.50391145      -2.53947725      -1.25136763       0.00457237      -0.00200597       0.00465531
H       -2.54739421      -0.07949187      -1.06066491       0.00399401      -0.02921121       0.00465005
H       -2.20092844       1.54451974      -3.37497093       0.01683419      -0.00260193       0.01085453
