45
Properties=species:S:1:pos:R:3:forces:R:3 charge=-1 spin=1 energy=-242.2811737060547 free_energy=-242.2811737060547 stress="-6.664610197049115e-08 1.0529921823376753e-08 -5.3973874258872456e-08 1.0529921823376753e-08 -9.54667882524518e-08 7.389685663383716e-08 -5.3973874258872456e-08 7.389685663383716e-08 -1.854233886433576e-07" pbc="F F F"
C        1.41880032       0.22339127       1.55400000       0.18480076       0.09377410       0.29567796
B        1.13998807       1.00546100       3.02605052      -0.00400237       0.00272200       0.00234687
B       -0.61884930       1.17643598       3.07934368      -0.00202084       0.00007713       0.00146987
B       -1.31068834      -0.46986148       3.05511460      -0.00066224       0.00079530       0.00250749
B        0.19584937      -0.15101483       3.97125601      -0.00153702       0.00210494       0.00003479
B        1.52838593      -0.70589747       3.02544168       0.00010613       0.00129871       0.00171816
C        0.81461973      -1.25189644       1.56400000      -0.00227690      -0.10199542       0.03405941
B        0.22908703       1.41854347       1.54844036      -0.00276883      -0.00176001      -0.00084774
B       -1.32755942       0.53016012       1.58289950      -0.00324509       0.00031868      -0.00118649
B       -0.85813439      -1.20262183       1.47946891      -0.00392143      -0.00252384      -0.00008716
B        0.03498287      -1.61448603       3.01323782      -0.00243410      -0.00007287       0.00279855
C        1.14300000       0.92400000      -1.55300000       0.09728452       0.01055542      -0.18390799
B        1.61838825       0.19660142      -2.99571699       0.00032059      -0.00422783      -0.00275095
B        0.67542655      -1.29570333      -3.04182235      -0.00163102      -0.00072388      -0.00081431
B       -1.05113253      -0.83750522      -3.07439135       0.00018299      -0.00105311      -0.00267457
B        0.14625544       0.14960694      -3.96867960      -0.00026762      -0.00204282       0.00052145
B        0.50456331       1.55093226      -3.02788839      -0.00015825       0.00039934      -0.00207376
C       -0.40000000       1.32300000      -1.56800000      -0.14266182       0.33616492      -0.22401063
B        1.34142677      -0.74300743      -1.50130700      -0.00344855      -0.00164098       0.00032604
B       -0.30897826      -1.43831187      -1.57352529      -0.00210547      -0.00611207       0.00212291
B       -1.40696893      -0.01753246      -1.52214804      -0.00096676      -0.00230856      -0.00098100
B       -1.13039270       0.92570921      -3.04485773      -0.00142637      -0.00129467      -0.00250167
Co       0.00000000       0.00000000       0.00000000      -0.10236296      -0.32456118       0.07289324
H        2.38657278       0.38317256       1.06808126      -0.00037608       0.00103493       0.00308622
H        1.94493133       1.78244139       3.43772858      -0.00095882       0.00224981      -0.00195210
H       -1.13770216       2.07994258       3.66151586      -0.00182116      -0.00025064      -0.00159679
H       -2.33331149      -0.74726541       3.60556673       0.00094078      -0.00077868      -0.00021409
H        0.20819050      -0.16710829       5.16134018      -0.00032020       0.00254473      -0.00270726
H        2.58331386      -1.14915507       3.34168064       0.00171790       0.00167871       0.00066105
H        1.36569506      -2.03972713       1.04299637      -0.00322651       0.00035121       0.00297679
H        0.45840861       2.49791597       1.08298645       0.00064225      -0.00051905      -0.00095236
H       -2.36813861       0.95613644       1.17437717       0.00067206      -0.00216766       0.00213342
H       -1.46239254      -2.13018927       1.02978801       0.00378712      -0.00026624      -0.00035787
H        0.01082849      -2.74180361       3.39986486       0.00169708       0.00053585       0.00096653
H        1.85001011       1.59508694      -1.05529433      -0.00521319      -0.00049285       0.00478469
H        2.73436149       0.34426322      -3.38717501       0.00130379      -0.00198695      -0.00004216
H        1.08753358      -2.26796946      -3.59769545      -0.00167993      -0.00006309       0.00261353
H       -1.87690131      -1.48450450      -3.64447917      -0.00086480       0.00137782       0.00125618
H        0.16985800       0.15642916      -5.15863719      -0.00031368      -0.00214834       0.00345711
H        0.79755138       2.65599116      -3.34758747       0.00148170       0.00104362      -0.00216191
H       -0.69907098       2.25702726      -1.08106626      -0.00262383      -0.00225165      -0.00120550
H        2.31708310      -1.21187007      -0.99230139       0.00128160      -0.00253444      -0.00285400
H       -0.60825150      -2.51781442      -1.15637359      -0.00131999       0.00348366      -0.00216109
H       -2.52144680       0.07875834      -1.09923779       0.00020419      -0.00008155      -0.00038981
H       -2.02033792       1.60290923      -3.45753087       0.00019260       0.00134741       0.00001889
