45
Properties=species:S:1:pos:R:3:forces:R:3 charge=-1 spin=1 energy=-54314.49248029488 free_energy=-54314.49248029488 stress="0.9957584142684937 0.20989488065242767 -0.09661565721035004 0.20989488065242767 0.9643920660018921 -1.3842095136642456 -0.09661565721035004 -1.3842095136642456 1.5756906270980835" pbc="F F F"
C        1.34041275      -0.51593765       1.55400000      -0.32812649       0.16003036       0.08140214
B        1.47991663       0.32298861       3.02129238       0.00090755       0.00078846       0.00004148
B        0.02655312       1.33420871       3.10471136      -0.00105397       0.00070513      -0.00086963
B       -1.38071673       0.25804090       3.07518386      -0.00032867      -0.00033664      -0.00209471
B        0.09041216      -0.21614153       3.97966708       0.00032222       0.00060608      -0.00029945
B        0.98711795      -1.37084529       2.96802699       0.00041707       0.00077201       0.00010176
C        0.07953316      -1.49148398       1.56400000       0.11716193       0.47381344      -0.57244164
B        0.87416165       1.12345397       1.56275225       0.00332013       0.00143460       0.00002165
B       -0.90808764       1.11783019       1.58694846       0.00084070       0.00018333      -0.00011228
B       -1.36884831      -0.60797939       1.50615946      -0.00183007      -0.00363547      -0.00131785
B       -0.78682092      -1.40074722       3.00021477      -0.00182211       0.00247113      -0.00379545
C        1.14300000       0.92400000      -1.55300000      -0.41284487      -0.34995019       0.15504481
B        1.61203828       0.17583737      -2.99202395       0.00109856       0.00004570      -0.00045842
B        0.64206184      -1.30340021      -3.07601731      -0.00141783      -0.00108342       0.00016539
B       -1.06598621      -0.83692746      -3.10337356      -0.00092956       0.00034357       0.00226066
B        0.14261566       0.14731753      -3.98304726       0.00072149      -0.00026603       0.00007583
B        0.51542081       1.56105563      -2.97344111       0.00080880      -0.00039794      -0.00041262
C       -0.40000000       1.32300000      -1.56800000       0.12783918       0.14565530       0.37478307
B        1.30296682      -0.76534147      -1.51976133       0.00346532      -0.00023520       0.00064152
B       -0.34607631      -1.43194262      -1.58380708       0.00078017       0.00075890      -0.00007184
B       -1.43199166      -0.01877541      -1.55632514      -0.00353846       0.00315937       0.00125964
B       -1.13608234       0.92415051      -3.03803996      -0.00085806      -0.00284980       0.00448875
Co       0.00000000       0.00000000       0.00000000       0.52117044      -0.43011090      -0.03995899
H        2.23290420      -0.87432646       1.07119434      -0.00835341       0.00037153       0.00066601
H        2.56179263       0.58066422       3.42647943       0.00021974       0.00045338       0.00499328
H        0.04767318       2.37425688       3.67265264      -0.00124016       0.00072780      -0.00044851
H       -2.39751213       0.50377892       3.63240067       0.00002536      -0.00075067       0.00022948
H        0.13305950      -0.29279662       5.16229551      -0.00093610       0.00168490       0.00128573
H        1.67509002      -2.27744570       3.28573302       0.00047729      -0.00022303       0.00441732
H        0.18461258      -2.43113446       1.04757694      -0.00135151       0.00835636       0.00172291
H        1.61056250       1.95541213       1.13372109      -0.00535223      -0.00227654      -0.00294892
H       -1.59545886       2.01497262       1.21245883      -0.00230767       0.00238390      -0.00423300
H       -2.34649316      -1.10190490       1.05812885      -0.00017002       0.00337905      -0.00761051
H       -1.33169290      -2.37686034       3.38788079       0.00244982       0.00251647       0.00348192
H        1.81653673       1.59472064      -1.04838252      -0.00795123      -0.00399841      -0.00161659
H        2.72131099       0.33499196      -3.37296847       0.00104911      -0.00004547      -0.00472608
H        1.06734659      -2.26886261      -3.61611614      -0.00100727      -0.00076575       0.00022860
H       -1.89943649      -1.45295348      -3.67824954      -0.00025159       0.00092252      -0.00018818
H        0.18124940       0.22524022      -5.16569529      -0.00016466      -0.00165209      -0.00139060
H        0.80323806       2.66266551      -3.28875102       0.00105222       0.00065742      -0.00384235
H       -0.66934012       2.25140181      -1.09024990       0.00216244      -0.00625040      -0.00249673
H        2.28120872      -1.26298433      -1.05862327      -0.00748321      -0.00018279       0.00261219
H       -0.65082404      -2.51804341      -1.20353318      -0.00099162      -0.00288638       0.00631055
H       -2.53500059       0.08385040      -1.14101774       0.00063030      -0.00307675       0.00837727
H       -1.99137273       1.63100124      -3.44860889       0.00339114      -0.00124690      -0.00327798
