45
Properties=species:S:1:pos:R:3:forces:R:3 charge=-1 spin=1 energy=-242.32421875 free_energy=-242.32421875 stress="2.0770158926097793e-08 -2.8417419528636856e-09 -2.3117671332784084e-08 -2.8417419528636856e-09 7.633373044768632e-09 4.7543625925072774e-08 -2.3117671332784084e-08 4.7543625925072774e-08 3.210298871181294e-08" pbc="F F F"
C        1.37417027      -0.55186130       1.59326242       0.01077056       0.00374842       0.01038775
B        1.53713710       0.26254812       3.05053320      -0.00183895       0.00971057       0.00868404
B        0.10581535       1.30312817       3.11041568      -0.00496199      -0.00231791       0.00288723
B       -1.32656623       0.24003994       3.10682682       0.00231677      -0.00524658      -0.00458156
B        0.14613093      -0.25595477       4.00192219      -0.00744988       0.00099573      -0.00183520
B        1.00104621      -1.40949130       3.03623150      -0.00345854      -0.00038824       0.01819541
C        0.08601091      -1.50632810       1.58322086      -0.01769373      -0.01224396      -0.01051411
B        0.93457859       1.07125599       1.56137024       0.00967950       0.01423779      -0.00763701
B       -0.86605057       1.10727612       1.63600000       0.12127495       0.01529691      -0.10023598
B       -1.32333513      -0.60849666       1.51840571      -0.02080709      -0.01358697      -0.02998553
B       -0.74795779      -1.42958504       3.04174954      -0.00694351      -0.00138034       0.00564268
C        1.13056382       0.97124007      -1.58438132       0.00419779       0.00870961      -0.00217250
B        1.62348572       0.25112472      -3.01910438       0.00446711      -0.00494166      -0.00579597
B        0.70499111      -1.25800768      -3.07121850      -0.00255547       0.00046948      -0.00273442
B       -1.02484808      -0.82658170      -3.10660379       0.00321385       0.00287673       0.00437293
B        0.16003217       0.18156384      -3.99958222      -0.00351928      -0.00435583       0.00271710
B        0.49394348       1.59140634      -3.05428851      -0.00487673       0.00279669      -0.01672196
C       -0.42429787       1.36314887      -1.61781925      -0.02335042       0.01000372       0.01068109
B        1.34197729      -0.69119534      -1.51239641       0.01693019      -0.00685876       0.00528494
B       -0.27500000      -1.43300000      -1.61500000      -0.01795942       0.14254591       0.07176755
B       -1.38559609      -0.00886683      -1.55669167      -0.02966267       0.00193056       0.03059518
B       -1.13361011       0.94185590      -3.08077536      -0.00804025      -0.00643402      -0.00869518
Co       0.00000000       0.00000000       0.00000000      -0.05413810      -0.16087621       0.02449879
H        2.27096293      -0.89400283       1.07247831       0.02430630      -0.01422149       0.03245501
H        2.62762696       0.53358779       3.45048185      -0.01031584      -0.00104513       0.00533284
H        0.13456401       2.34877630       3.68500591      -0.00744287       0.00019319       0.00533713
H       -2.33680126       0.51709603       3.68062024      -0.00247687      -0.01029869      -0.00941131
H        0.16424430      -0.28083500       5.19204854      -0.00269966      -0.00285907       0.00119205
H        1.68164312      -2.33265423       3.34379906       0.00219977      -0.00282162       0.00392228
H        0.14920418      -2.45861434       1.05020176       0.00204410      -0.00045480      -0.00154495
H        1.69507251       1.88596957       1.12362903      -0.01675776      -0.00425093       0.00823160
H       -1.52985795       2.01516898       1.22745371      -0.00085082       0.00956463      -0.01250710
H       -2.32767854      -1.09373100       1.08422422       0.03092839       0.01072719      -0.00748751
H       -1.33340071      -2.39175762       3.43311462      -0.00270838      -0.00262128      -0.00581573
H        1.81939119       1.63863184      -1.06104395       0.00518683       0.02433005      -0.01879244
H        2.74248856       0.40569243      -3.40066867      -0.00370508       0.00654189       0.00050132
H        1.14230121      -2.21994914      -3.62575158       0.00088216      -0.00275826      -0.00111762
H       -1.84283781      -1.47871415      -3.68270058       0.00067413       0.00346223       0.00662859
H        0.18431675       0.19102055      -5.18978854       0.00464188      -0.00195116       0.00042754
H        0.78034668       2.69736364      -3.37799687      -0.00430931       0.00448456      -0.00196192
H       -0.74186749       2.28084859      -1.11388387      -0.00732230      -0.00115561      -0.00128180
H        2.34575148      -1.14030430      -1.04037124      -0.01260057       0.00294473      -0.02254996
H       -0.55893832      -2.51094733      -1.18209590       0.00577139      -0.00582350       0.00871681
H       -2.50941819       0.05635369      -1.14861643       0.03182122      -0.00193869       0.00600560
H       -2.03247089       1.60159081      -3.50345212      -0.00286153      -0.00473964      -0.00108612
