45
Properties=species:S:1:pos:R:3:forces:R:3 charge=-1 spin=1 energy=-54314.304568307576 free_energy=-54314.304568307576 stress="-0.009515908546745777 -0.04670031741261482 -0.3082300126552582 -0.04670031741261482 -0.27874690294265747 0.17131662368774414 -0.3082300126552582 0.17131662368774414 1.6995960474014282" pbc="F F F"
C       -0.81744653       1.20386378       1.54813906      -0.01195738      -0.01205620      -0.00829659
B       -1.39102037       0.65982810       3.04055283      -0.01232138      -0.03462917       0.00235235
B       -0.79615119      -0.99921149       3.15820367      -0.02430120       0.01681683      -0.00793516
B        0.97179110      -0.94486688       3.10316536      -0.00892474      -0.00828083      -0.01364748
B        0.07132661       0.32144905       3.98693076       0.01243780       0.01509165      -0.01561196
B       -0.00795717       1.74699836       2.93223607       0.03868472      -0.00377476       0.00481839
C        0.75260733       1.25715168       1.50530405       0.01660089      -0.01141431      -0.00885821
B       -1.39269650      -0.38675653       1.58772634       0.01295635      -0.03433436      -0.00354764
B        0.04980906      -1.40485695       1.63600000       0.20580007      -0.16153410      -0.34234262
B        1.43945324      -0.29118266       1.51379772       0.00408925       0.02055450       0.00156486
B        1.45196476       0.74443411       2.96474918      -0.00964883       0.02801164      -0.00035316
C        1.01863579       0.99339812      -1.58080296       0.01102701      -0.01245130       0.00545873
B        1.50135502       0.32046452      -3.05193221       0.00739205      -0.03304677       0.00088611
B        0.63522115      -1.21593342      -3.13529699       0.02845615       0.01249780       0.00837180
B       -1.09810743      -0.86284392      -3.09951255       0.00560295      -0.00516580       0.01012951
B        0.00906092       0.21007799      -4.00507838      -0.01177082       0.01906314       0.01369750
B        0.32140768       1.62881643      -2.98581804      -0.03148568       0.00212396      -0.00728853
C       -0.51996524       1.31291688      -1.55481295      -0.02428970      -0.00991897       0.01195306
B        1.31463061      -0.67186252      -1.57297903      -0.01801121      -0.02255828       0.00704411
B       -0.27500000      -1.43300000      -1.61500000      -0.24996950      -0.08288022       0.41224453
B       -1.45591007      -0.09933171      -1.52894228      -0.00205742       0.02900952      -0.00169353
B       -1.28692189       0.88610685      -3.00709737       0.00801681       0.01920650      -0.00287928
Co       0.00000000       0.00000000       0.00000000       0.07829587       0.24912503      -0.06142976
H       -1.35254237       2.00708441       1.06824914      -0.02098838      -0.00654312      -0.02532308
H       -2.41285987       1.09488213       3.44992424      -0.00911238      -0.00449496      -0.01324986
H       -1.40247870      -1.82050551       3.75908276      -0.00098974       0.00589123      -0.01736088
H        1.66801987      -1.72648613       3.65721062      -0.00541932       0.00418810       0.02316303
H        0.10877142       0.44461192       5.16656284      -0.01977356       0.00403896      -0.02039199
H       -0.02322279       2.89885601       3.20118673      -0.01664310       0.00243449      -0.00771790
H        1.21098330       2.09522259       1.00275733      -0.00505447      -0.00102818       0.00697720
H       -2.47923151      -0.65159103       1.20073223       0.00698147       0.00360046      -0.00767039
H        0.08098509      -2.54557951       1.31196227       0.00357867      -0.00414579       0.00443404
H        2.51890239      -0.46348556       1.05817666      -0.01790864      -0.00488445       0.01976711
H        2.47267605       1.24100406       3.30263879      -0.01309237       0.00516461       0.01259379
H        1.68076620       1.70607811      -1.11678587       0.01646494      -0.00536279       0.02295787
H        2.58592608       0.56455433      -3.45840065       0.00501837      -0.00240851       0.00765092
H        1.09854216      -2.14367756      -3.70747602       0.00305734       0.00455722       0.01244242
H       -1.91199814      -1.52969304      -3.64311953       0.00190004       0.00369073      -0.01784749
H        0.00158376       0.30713893      -5.18767243       0.01374131       0.00065392       0.01874851
H        0.53465443       2.75373483      -3.28252008       0.01137334       0.00408181       0.00394156
H       -0.83437765       2.22989643      -1.08006200       0.00857171       0.00234701      -0.00647027
H        2.33800457      -1.10913217      -1.17094645      -0.00826889       0.01215877       0.00852037
H       -0.49955664      -2.54233523      -1.26007709      -0.00380338      -0.00284509      -0.00388567
H       -2.55141908      -0.07785280      -1.07888453       0.01464903      -0.00376062      -0.01875585
H       -2.20635179       1.53837245      -3.37010527       0.01109626       0.00321053      -0.00716094
