45
Properties=species:S:1:pos:R:3:forces:R:3 charge=-1 spin=1 energy=-242.30349731445312 free_energy=-242.30349731445312 stress="2.9002700685509808e-08 -8.133150153355473e-09 1.525005544067426e-08 -8.133150153355473e-09 5.3075233097388264e-08 3.377329349518732e-08 1.525005544067426e-08 3.377329349518732e-08 7.996312945124373e-08" pbc="F F F"
C       -1.45105730       0.28511783       1.59174912      -0.00444721       0.01664403       0.00802317
B       -1.45900802      -0.54410173       3.04965803       0.00172169      -0.01144200       0.01201392
B        0.13680891      -1.29631425       3.11404403       0.00829883      -0.00182208       0.00270791
B        1.34998119       0.01192505       3.11619193       0.00010094       0.00093717      -0.00802273
B       -0.19543701       0.22105194       4.00478062       0.00749888      -0.00281991       0.00018599
B       -1.24428592       1.19364297       3.03345684      -0.00278543       0.00092159       0.00756215
C       -0.35789706       1.46405575       1.59161506      -0.02253059      -0.01789439      -0.01278806
B       -0.70533678      -1.21611805       1.52952511       0.00059429       0.01240654      -0.02818456
B        1.05819329      -0.92538152       1.63600000      -0.06412470       0.02509555      -0.10567664
B        1.20190285       0.85888956       1.55756003      -0.02522048      -0.02300468      -0.03084783
B        0.47614104       1.54166714       3.04393868       0.00262032      -0.00265773       0.00812071
C        1.14324708       0.96300585      -1.58983854      -0.01939423       0.02097106      -0.00161725
B        1.62154671       0.24709820      -3.02791369       0.00408597      -0.01462524      -0.01518369
B        0.69798008      -1.25422193      -3.08143081      -0.00229609      -0.00644505      -0.00033651
B       -1.03181577      -0.82228040      -3.11215379       0.00087427      -0.00217171       0.00734971
B        0.15794473       0.18482661      -4.00229878      -0.00383184      -0.00923052      -0.00120740
B        0.49908045       1.58722525      -3.04965990      -0.00780953       0.00259789      -0.01528575
C       -0.41991189       1.36032317      -1.61959305      -0.00043330      -0.00868401       0.00147882
B        1.32751857      -0.69678460      -1.48311825      -0.01094148       0.01408937       0.02715391
B       -0.27500000      -1.43300000      -1.61500000      -0.08837116       0.16642722       0.15344279
B       -1.39833587      -0.00796000      -1.57862551       0.01845732      -0.00331753       0.01645440
B       -1.13817276       0.94110376      -3.07279904      -0.00238691      -0.00452767      -0.00577308
Co       0.00000000       0.00000000       0.00000000       0.19848365      -0.18831390      -0.03059009
H       -2.40080012       0.44778459       1.07565229       0.00415197       0.01568433      -0.00789544
H       -2.47860267      -1.01655801       3.44714703      -0.00348090      -0.00615652       0.00020452
H        0.30151690      -2.32906349       3.69008059       0.00046789      -0.00824071      -0.00535557
H        2.38783579      -0.07786713       3.69950668      -0.00159687       0.00302353      -0.01029804
H       -0.22503791       0.25262376       5.19401782       0.00555388      -0.00805270       0.00120781
H       -2.08388402       1.97638611       3.33763613      -0.00390971      -0.00446051       0.00438008
H       -0.60464276       2.40043713       1.08270067      -0.01612356      -0.00512125       0.00828129
H       -1.30251939      -2.16100297       1.10472569       0.01505645      -0.00841526      -0.01699780
H        1.89112800      -1.69771816       1.25956875      -0.01884085       0.02793248      -0.00651650
H        2.08790987       1.50711410       1.08268879       0.00216208      -0.00248920       0.02567223
H        0.86266176       2.59566492       3.44465365      -0.00222416       0.00481656      -0.00071035
H        1.84295276       1.62130334      -1.07023620      -0.01482685       0.02743555      -0.00593570
H        2.73895479       0.39443412      -3.41508315       0.01205784       0.00145530       0.00731884
H        1.13062097      -2.21529963      -3.64249569       0.01360168      -0.00694939       0.01181618
H       -1.84800592      -1.47117052      -3.69389574       0.00658800      -0.00221675       0.00788219
H        0.17747981       0.21089579      -5.19190156       0.00500798      -0.01351893      -0.00155626
H        0.78272460       2.69458457      -3.37087788       0.00352947       0.00163993      -0.00640191
H       -0.73010468       2.29301843      -1.13891474       0.01169021      -0.00162781      -0.01219443
H        2.33810275      -1.15170580      -1.03701944      -0.00887997      -0.00689469       0.02169941
H       -0.56188387      -2.52228520      -1.21270577      -0.00343093       0.03147366       0.01454620
H       -2.50569428       0.04922770      -1.12716704       0.00375159       0.00338471      -0.01178059
H       -2.03054183       1.60923264      -3.49597530       0.00153191      -0.00583635      -0.00634591
