45
Properties=species:S:1:pos:R:3:forces:R:3 charge=-1 spin=1 energy=-54314.523123758016 free_energy=-54314.523123758016 stress="0.9686365127563477 0.501312792301178 -0.9743880033493042 0.501312792301178 0.4709635078907013 -0.9628316760063171 -0.9743880033493042 -0.9628316760063171 1.1258728504180908" pbc="F F F"
C       -0.01634865      -1.43618617       1.55400000      -0.00949131       0.24060945      -0.15189758
B        0.81296617      -1.28581120       3.01990388       0.01110317       0.00208882       0.00007203
B        1.25727314       0.42406243       3.11171378      -0.00636729       0.01916840       0.02037810
B       -0.23882027       1.36965238       3.10303827      -0.01175833       0.00996265      -0.00980402
B       -0.17242585      -0.17996867       3.98941980      -0.00048902      -0.00413994       0.00713560
B       -0.94607504      -1.41235199       2.96579319      -0.00080367      -0.00738537      -0.00419891
C       -1.37021804      -0.59443463       1.56400000       0.38555712       0.11562418      -0.38647017
B        1.35527147      -0.43751342       1.55724487       0.01174566       0.03169728       0.02889562
B        0.72636244       1.22793573       1.60622075      -0.01343841       0.00934578      -0.00185610
B       -1.04768456       1.06688561       1.54355114      -0.00524624      -0.00443977      -0.03311774
B       -1.59232678       0.23798454       3.01609354      -0.00167370       0.00202317      -0.00025799
C        1.14300000       0.92400000      -1.55300000      -0.40363982      -0.33516294       0.37576440
B        1.60513878       0.15878069      -2.97944023       0.01176816      -0.00564204       0.00161465
B        0.64010335      -1.32025750      -3.04469504      -0.01297035      -0.00602729      -0.02581961
B       -1.06719603      -0.85544440      -3.09201742      -0.01275365       0.00523393       0.00435682
B        0.13973252       0.11860171      -3.97364382       0.00844447       0.00538735      -0.00979997
B        0.51024484       1.54536893      -2.97812575       0.00544151       0.00645611       0.00364253
C       -0.40000000       1.32300000      -1.56800000       0.03351140       0.10713026       0.11878449
B        1.30625493      -0.76400180      -1.48462588      -0.01293847      -0.03014492      -0.03042793
B       -0.34440294      -1.43152297      -1.56158317      -0.01743264       0.00592227      -0.01126072
B       -1.43084233      -0.02006631      -1.56727772      -0.00330852       0.01170844       0.02394205
B       -1.14026966       0.91044581      -3.04133252      -0.00012188      -0.00273523      -0.00326305
Co       0.00000000       0.00000000       0.00000000       0.05312391      -0.20329992       0.11439072
H       -0.04049416      -2.39003388       1.05539410      -0.00158746      -0.00305357      -0.00355357
H        1.43894786      -2.20957541       3.41123254      -0.00899507      -0.00838959       0.01928499
H        2.24331622       0.76325943       3.67343365       0.00495953      -0.00321644       0.01923021
H       -0.35686812       2.40728188       3.66360734      -0.00377831       0.00393082       0.00692575
H       -0.22120078      -0.25781606       5.17125275      -0.01466172      -0.00063379       0.01302874
H       -1.55318757      -2.37710080       3.27499553      -0.00896707      -0.00634106       0.00395924
H       -2.21817908      -1.02212416       1.05566745       0.00852118       0.00945110      -0.03085786
H        2.39274789      -0.84638071       1.16134839       0.01338627       0.04412972       0.00456943
H        1.32843894       2.19124571       1.24352365      -0.00526683      -0.00116965      -0.01706428
H       -1.84204132       1.81885533       1.08108143       0.01408692       0.00584424      -0.04683966
H       -2.69602509       0.40246665       3.41034778      -0.00613970       0.00093204      -0.00237077
H        1.81378390       1.59428219      -1.04355807      -0.00169705       0.00494029       0.00454800
H        2.71560142       0.30289695      -3.35867649       0.00822672       0.01557044      -0.01641553
H        1.06460436      -2.29363443      -3.56903209       0.01447205      -0.00154404      -0.01895546
H       -1.90185486      -1.48078018      -3.65529046       0.00295876      -0.00130124      -0.01238586
H        0.18440817       0.17852726      -5.15652097       0.00029129       0.01200280      -0.01594313
H        0.80247387       2.64116792      -3.30778717       0.00102691       0.01099054      -0.00355190
H       -0.66852735       2.25845120      -1.10458487      -0.00437005      -0.01098151       0.02695961
H        2.29228173      -1.25107642      -1.04792969      -0.02052526      -0.03752985      -0.00475627
H       -0.65197468      -2.51622453      -1.17387677      -0.00395371       0.00681656       0.00609571
H       -2.53162846       0.07971280      -1.13375126       0.00231655      -0.01382861       0.04041618
H       -1.99405651       1.61357611      -3.46287038       0.00143382       0.00000012      -0.00312677
