45
Properties=species:S:1:pos:R:3:forces:R:3 charge=-1 spin=1 energy=-242.2318878173828 free_energy=-242.2318878173828 stress="-4.339598902447506e-08 1.4340840515103537e-08 -3.646322710437744e-08 1.4340840515103537e-08 -1.059784793255858e-07 2.996754844275529e-08 -3.646322710437744e-08 2.996754844275529e-08 -2.001331438350462e-07" pbc="F F F"
C        0.56240308       1.32159024       1.55400000       0.05179054       0.24428263       0.27904519
B       -0.25679629       1.49719995       3.02390312      -0.00011249      -0.00158381      -0.00059096
B       -1.33678697       0.10374782       3.06854141       0.00000438      -0.00100540      -0.00305223
B       -0.31464409      -1.36034123       3.04432348      -0.00031212       0.00162521      -0.00000204
B        0.21281616       0.08145262       3.96536438       0.00287981      -0.00032170      -0.00108633
B        1.39696748       0.91585309       3.02521190      -0.00433405      -0.00174523       0.00270004
C        1.49335108       0.02743267       1.56400000       0.00905320      -0.12539895       0.11646776
B       -1.07932166       0.96047580       1.53781100      -0.00256021       0.00096333      -0.00114979
B       -1.15409186      -0.83389886       1.55683884       0.00005981      -0.00179997       0.00225581
B        0.55481347      -1.37223239       1.48724274       0.00353444       0.00204086      -0.00289094
B        1.37155691      -0.83270131       3.00617082      -0.00405649       0.00035892       0.00391165
C        1.14300000       0.92400000      -1.55300000       0.12213751       0.03996807      -0.20630352
B        1.61297993       0.19183552      -2.99807317      -0.00122914      -0.00154721       0.00030869
B        0.67733027      -1.30151240      -3.03505359      -0.00172645      -0.00118652       0.00351562
B       -1.05050425      -0.85403229      -3.06053525       0.00127730      -0.00067751       0.00061804
B        0.13778709       0.13398256      -3.96284671      -0.00097144       0.00182308       0.00114000
B        0.49551374       1.54092510      -3.02738699      -0.00183046      -0.00352303      -0.00151327
C       -0.40000000       1.32300000      -1.56800000      -0.21369478       0.22218969      -0.24428701
B        1.35549980      -0.73749124      -1.49868112       0.00102201      -0.00318854       0.00138517
B       -0.29995293      -1.43466178      -1.54487505      -0.00199770       0.00017297      -0.00269711
B       -1.40841938      -0.03375489      -1.52142233      -0.00060537       0.00297364       0.00287192
B       -1.13793449       0.90968214      -3.03302415       0.00199415      -0.00292454      -0.00218008
Co       0.00000000       0.00000000       0.00000000       0.03545057      -0.36234605       0.04693820
H        0.94332769       2.23400749       1.08323371       0.00259009      -0.00058785      -0.00219341
H       -0.48603223       2.59122760       3.43730677      -0.00035454       0.00240988       0.00063646
H       -2.38369546       0.14057159       3.64055207      -0.00128001       0.00062333      -0.00141633
H       -0.63058691      -2.37317823       3.59191201      -0.00204564       0.00078771      -0.00024346
H        0.23010597       0.08017108       5.15507209      -0.00056512      -0.00023778      -0.00190258
H        2.33012147       1.57358376       3.35066244       0.00143260       0.00097936      -0.00051779
H        2.46228397       0.06764753       1.05855933       0.00083515      -0.00139115      -0.00116071
H       -1.86116760       1.73625499       1.07028444       0.00283819      -0.00494789      -0.00553666
H       -2.09039611      -1.47053774       1.17041574       0.00025379      -0.00511449       0.00316332
H        1.01255463      -2.37144227       1.01949371       0.00487436      -0.00108568       0.00114590
H        2.31195024      -1.44784549       3.40298322       0.00099666      -0.00051014       0.00026137
H        1.85489110       1.60127353      -1.07053795      -0.00155173       0.00216700       0.00150842
H        2.72520148       0.34432536      -3.39764144       0.00290653      -0.00056824      -0.00010730
H        1.08742846      -2.27809201      -3.58494532       0.00086739      -0.00207941       0.00337779
H       -1.87455676      -1.50828880      -3.62473959       0.00170471      -0.00255682       0.00146157
H        0.15374818       0.13966089      -5.15258958       0.00073808      -0.00251413       0.00280549
H        0.78495135       2.64425176      -3.35657271       0.00063279       0.00065246      -0.00040570
H       -0.71129564       2.25807986      -1.09084866      -0.00001720       0.00172104      -0.00077678
H        2.33682922      -1.19906573      -0.99729503      -0.00342782       0.00141650       0.00623169
H       -0.56711699      -2.52787195      -1.14143086      -0.00535078      -0.00243992      -0.00040255
H       -2.51849694       0.05235388      -1.08554860      -0.00173145       0.00457311      -0.00033284
H       -2.02803626       1.58445018      -3.44880952      -0.00011943      -0.00044723      -0.00100029
