45
Properties=species:S:1:pos:R:3:forces:R:3 charge=-1 spin=1 energy=-54314.343842523274 free_energy=-54314.343842523274 stress="1.4011751413345337 0.038051754236221313 0.20413275063037872 0.038051754236221313 0.6277291178703308 -0.3744579255580902 0.20413275063037872 -0.3744579255580902 0.6833174824714661" pbc="F F F"
C        1.05812608       0.97121944       1.55400000      -0.08399195      -0.21304801       0.06166321
B        0.38681168       1.48696965       3.02111597       0.00596987      -0.00312412      -0.00227005
B       -1.17043564       0.64980635       3.10924433       0.00476644      -0.00126422      -0.02029019
B       -0.84466193      -1.09037952       3.08546067       0.00241638       0.00673709      -0.00200960
B        0.24428495       0.00711206       3.98425303       0.00524165       0.00464192      -0.00151437
B        1.67500526       0.27855766       2.96753484       0.00773673      -0.00255294       0.00136030
C        1.37130299      -0.59192746       1.56400000      -0.55734497       0.36991993      -0.27322128
B       -0.60701493       1.30327407       1.56190398      -0.01365305       0.00564339      -0.01326294
B       -1.40888988      -0.29000310       1.59016822       0.01080701       0.00618667      -0.04528825
B       -0.07782562      -1.48052895       1.51452549       0.02565504       0.01496226      -0.01114229
B        0.90070038      -1.31452990       3.00600093       0.00416127       0.00167612       0.01395539
C        1.14300000       0.92400000      -1.55300000      -0.47049984      -0.21640179       0.05475577
B        1.62393249       0.17956379      -2.99027033      -0.00713870       0.01102967      -0.00316700
B        0.66746289      -1.30723266      -3.06280688      -0.00783377       0.00940087       0.01029024
B       -1.04377958      -0.85308091      -3.09128539      -0.00015882       0.00787055       0.00226229
B        0.15421598       0.13389647      -3.97826880      -0.00229759       0.01079194      -0.00056514
B        0.51443467       1.55538567      -2.97752627      -0.00634296       0.01136780      -0.00093638
C       -0.40000000       1.32300000      -1.56800000       0.16325057      -0.04139770       0.15162861
B        1.32258743      -0.75794297      -1.51150677       0.00054075      -0.01873791       0.00656159
B       -0.32368935      -1.44359096      -1.56701750       0.00019880       0.01065909       0.04136952
B       -1.41927709      -0.03568732      -1.54423618       0.01720072       0.01782676       0.02262489
B       -1.13081424       0.90527012      -3.03499902      -0.00210152       0.00394276      -0.00560951
Co       0.00000000       0.00000000       0.00000000       0.83676875      -0.08178037       0.04206000
H        1.78875922       1.60585353       1.07881782       0.00142528       0.02226387       0.03689181
H        0.65143848       2.57064568       3.41829507       0.00655735       0.00004771      -0.00215683
H       -2.09031605       1.13533193       3.67796884       0.01517275      -0.00191965      -0.00721672
H       -1.52159575      -1.88599438       3.64421572      -0.00316546       0.00354642       0.00195069
H        0.33534487       0.01222620       5.16664453       0.00128522       0.00430291      -0.00142145
H        2.79633021       0.48732522       3.27809198       0.00818882       0.00353726       0.00365674
H        2.25955806      -0.92475468       1.05774115       0.01256926       0.00045725       0.01488717
H       -1.00182947       2.33455455       1.11878221      -0.02118856       0.00942413       0.01275101
H       -2.52674376      -0.49843097       1.25503265       0.00108011      -0.01520817      -0.00269811
H       -0.09547819      -2.58418317       1.09025570       0.03368141       0.01328270       0.00058895
H        1.52402777      -2.24236145       3.39338880       0.00281269      -0.00268714       0.01157669
H        1.81424857       1.61082719      -1.06453928       0.02570031      -0.00293254      -0.03691940
H        2.73358737       0.34700573      -3.36819679      -0.00221106       0.01026867      -0.00290507
H        1.09534948      -2.27611589      -3.59526164      -0.00192024       0.01987026      -0.00245569
H       -1.87325936      -1.47884013      -3.66009937       0.00109730       0.00151500      -0.00604889
H        0.18920685       0.20352517      -5.16147433       0.00078464       0.00919241      -0.00081993
H        0.79721330       2.65718937      -3.29853218       0.00172964       0.01237309       0.00083171
H       -0.67471094       2.25467201      -1.10287633      -0.00380502       0.00730472      -0.00784278
H        2.30729461      -1.22828059      -1.03957240       0.00411761      -0.03874230      -0.02937873
H       -0.61384806      -2.53738011      -1.21694148      -0.02641919       0.00269015      -0.00451369
H       -2.52858950       0.04761480      -1.14128659       0.01162128       0.02253563      -0.00200746
H       -1.99334007       1.60007207      -3.45053922      -0.00246477       0.00452798      -0.00600472
