45
Properties=species:S:1:pos:R:3:forces:R:3 charge=-1 spin=1 energy=-54314.44583417672 free_energy=-54314.44583417672 stress="0.8113391399383545 0.3566801846027374 -0.3745805621147156 0.3566801846027374 1.1011488437652588 -1.070638656616211 -0.3745805621147156 -1.070638656616211 0.8213736414909363" pbc="F F F"
C        1.09617945      -0.92805637       1.55400000      -0.24894641       0.09860289      -0.00510785
B        1.51534635      -0.19300703       3.02260945       0.00433044       0.00374502      -0.00931571
B        0.48295126       1.24264424       3.11726165      -0.00993015      -0.00183630       0.00572308
B       -1.20020029       0.69282155       3.09961847      -0.00099979       0.00133607       0.00227960
B        0.03312093      -0.24620391       3.98942403       0.00927944       0.00002613       0.00354961
B        0.48801447      -1.62727535       2.96672915      -0.00066494      -0.00591133      -0.01106655
C       -0.41539010      -1.43467804       1.56400000       0.19004855       0.50225025      -0.37184653
B        1.20276647       0.76600042       1.56690661      -0.01640328       0.00599907      -0.00804031
B       -0.48051041       1.35195648       1.60791644       0.00716983       0.00974741      -0.01436493
B       -1.48840864      -0.12079404       1.53371547      -0.01184225      -0.00087574       0.00366772
B       -1.19216690      -1.06984733       3.01326360      -0.00859743       0.01017228       0.00688319
C        1.14300000       0.92400000      -1.55300000      -0.41857925      -0.25709543       0.23758386
B        1.61800779       0.16499199      -2.98493284       0.00424257       0.00367712       0.00548947
B        0.65625412      -1.31868115      -3.05774599      -0.00840493       0.00901813      -0.01548376
B       -1.05281936      -0.85552766      -3.09798562       0.00016518       0.00553546      -0.00825027
B        0.15294588       0.12320352      -3.97851282       0.00665340       0.00806168      -0.00898106
B        0.51736484       1.54721956      -2.97889808      -0.00531691       0.01177921       0.00977820
C       -0.40000000       1.32300000      -1.56800000       0.07005097      -0.01251793       0.17035048
B        1.31213051      -0.76040853      -1.50399667      -0.02052284      -0.00786849       0.01636957
B       -0.33686324      -1.43602680      -1.57367328       0.00740236      -0.01291288       0.00622163
B       -1.42866018      -0.02522158      -1.56535867      -0.01182191       0.00315498      -0.00870301
B       -1.12935387       0.90799061      -3.04366581      -0.00445592      -0.00639407      -0.01283559
Co       0.00000000       0.00000000       0.00000000       0.27862543      -0.39294082       0.04170832
H        1.81688096      -1.55831600       1.06310725      -0.00435522       0.00667215       0.00254487
H        2.62393561      -0.30899222       3.41903662       0.00719559      -0.00772458       0.00385792
H        0.84880723       2.21552699       3.68667452       0.00780095      -0.00274637      -0.00073336
H       -2.07621811       1.25847269       3.66282121       0.00018567       0.00338385       0.00358543
H        0.05614906      -0.33903656       5.17115185       0.00037053       0.00125904       0.00925072
H        0.84096272      -2.71145701       3.27491958       0.00372606      -0.00680732       0.00520188
H       -0.62907803      -2.35604403       1.05070430       0.00456959      -0.00064485       0.00049287
H        2.17049566       1.30239091       1.13171837       0.02533886       0.00513028       0.00379731
H       -0.83637730       2.43147751       1.24635572       0.01243998      -0.02609740       0.01312833
H       -2.58371396      -0.25031007       1.10664228       0.01974662      -0.00777746       0.00394131
H       -2.02784623      -1.81064498       3.40361684       0.00069228      -0.00131929       0.00421913
H        1.81462899       1.59610290      -1.04844614      -0.00224000      -0.00467634      -0.00109092
H        2.72769828       0.32103922      -3.36313943       0.01198591       0.01467477      -0.00731414
H        1.08277884      -2.28967414      -3.58655339       0.01095525       0.00752087      -0.00650033
H       -1.88565981      -1.47807275      -3.66666897       0.00467946       0.00008843      -0.01000194
H        0.19498680       0.19063847      -5.16118102       0.00317364       0.00714998      -0.01389634
H        0.80551761       2.64505453      -3.30477321       0.00464729       0.01130100      -0.00171015
H       -0.67203912       2.25460012      -1.10039392       0.00299281       0.00176740      -0.00030306
H        2.28872367      -1.24317516      -1.02980954       0.03479503      -0.00726031      -0.00919955
H       -0.63989784      -2.52426332      -1.19160270       0.01199966       0.02286851      -0.02130792
H       -2.53800494       0.06704335      -1.16637287       0.02358834       0.00562804      -0.00972986
H       -1.98640453       1.60595816      -3.46532851       0.00422990       0.00285685      -0.00384159
