45
Properties=species:S:1:pos:R:3:forces:R:3 charge=-1 spin=1 energy=-54314.350707071004 free_energy=-54314.350707071004 stress="1.437860131263733 0.09235723316669464 0.4394747316837311 0.09235723316669464 0.523235559463501 -0.5402427911758423 0.4394747316837311 -0.5402427911758423 0.6170910000801086" pbc="F F F"
C        1.05131996       0.97858282       1.55400000      -0.14385131      -0.19528557       0.06810434
B        0.36663318       1.48586576       3.01596962       0.00002629      -0.00274944       0.00446615
B       -1.18188338       0.62999308       3.09556698       0.00116166      -0.00058530      -0.00047818
B       -0.83598351      -1.10594318       3.07521166       0.00379524       0.00206713       0.00412989
B        0.23552654       0.00610761       3.97995307      -0.00156964      -0.00156391      -0.00171323
B        1.66805125       0.29218743       2.96995731       0.00011730      -0.00355984      -0.00019268
C        1.37540197      -0.58233961       1.56400000      -0.42361456       0.41373947      -0.28775233
B       -0.62210255       1.29364085       1.55428047      -0.00340498      -0.00517064       0.00211528
B       -1.40280682      -0.31425545       1.57482531      -0.00318364       0.00783425       0.00173286
B       -0.05396581      -1.48641244       1.50785366       0.00282627      -0.00128745       0.00080451
B        0.91177092      -1.30914461       3.00772157       0.00239751       0.00372862       0.00333472
C        1.14300000       0.92400000      -1.55300000      -0.49459019      -0.31655914      -0.01184660
B        1.61226005       0.18242235      -2.99446556      -0.00325716       0.00021320      -0.00432660
B        0.64228526      -1.29670322      -3.07138502      -0.00005677       0.00167315      -0.00033806
B       -1.06465002      -0.83149911      -3.09543463       0.00327603       0.00351922      -0.00366000
B        0.14064455       0.15199773      -3.98184181      -0.00194200      -0.00242782       0.00200500
B        0.51308133       1.56511781      -2.97500541      -0.00271841       0.00023077      -0.00007930
C       -0.40000000       1.32300000      -1.56800000       0.20948322       0.18409012       0.24449883
B        1.30851587      -0.76495737      -1.52013798      -0.00556479      -0.00307036      -0.00151880
B       -0.34702482      -1.43267416      -1.57053065       0.00756219      -0.00379812      -0.00206410
B       -1.42723993      -0.01712664      -1.54282242      -0.00085257       0.00116308      -0.00040687
B       -1.13753245       0.92546030      -3.03428301       0.00490372       0.00247381      -0.00473977
Co       0.00000000       0.00000000       0.00000000       0.86555064      -0.07573944      -0.01336406
H        1.77935173       1.62396296       1.08943616      -0.00565172       0.00564619       0.00200971
H        0.61846164       2.57281658       3.41263545      -0.00136024      -0.00050888       0.00415500
H       -2.10915984       1.10564484       3.65976788       0.00386144      -0.00273995      -0.00029636
H       -1.50896521      -1.90713559       3.63095387       0.00154348       0.00101303       0.00132161
H        0.31978548       0.01483797       5.16294709      -0.00021309      -0.00075825      -0.00512944
H        2.78691172       0.51296179       3.28284929      -0.00271063       0.00056775       0.00364264
H        2.27218624      -0.90477701       1.06478932      -0.00369844      -0.00014734      -0.00004756
H       -1.03288304       2.32139521       1.11691792      -0.00281463      -0.00001298       0.00159668
H       -2.51599642      -0.54291592       1.23731281      -0.00050778      -0.00039825      -0.00021241
H       -0.04321496      -2.58843295       1.08019554      -0.00230862      -0.00134228      -0.00220250
H        1.54526069      -2.22894635       3.39873356      -0.00179215       0.00149447       0.00236599
H        1.82169060       1.60839140      -1.07167753       0.00519524      -0.00573526      -0.00200689
H        2.72195129       0.34432400      -3.37508183      -0.00232427      -0.00116096      -0.00484730
H        1.06336466      -2.26389701      -3.61150151      -0.00334315       0.00402450      -0.00004248
H       -1.89824633      -1.45016184      -3.66629735       0.00128957       0.00239120      -0.00002017
H        0.17603924       0.22732599      -5.16496969      -0.00186060      -0.00026104       0.00609964
H        0.79967279       2.66947985      -3.28559275       0.00048236      -0.00245647      -0.00410726
H       -0.66986723       2.25555407      -1.10074575      -0.00136330      -0.00243774      -0.00094543
H        2.28931201      -1.25769202      -1.06251141       0.00115057      -0.00346343      -0.00066365
H       -0.65461412      -2.52417689      -1.22756929       0.00011708      -0.00032330       0.00214224
H       -2.53301035       0.08527358      -1.13599790      -0.00144395      -0.00127342       0.00070592
H       -1.99524670       1.63201896      -3.44059642       0.00125907      -0.00105328      -0.00222881
