45
Properties=species:S:1:pos:R:3:forces:R:3 charge=-1 spin=1 energy=-54314.46148397225 free_energy=-54314.46148397225 stress="0.6689165830612183 0.323262095451355 -0.4567854106426239 0.323262095451355 0.970097005367279 -1.106673240661621 -0.4567854106426239 -1.106673240661621 1.5052447319030762" pbc="F F F"
C        1.01467724      -1.01652748       1.55400000      -0.19329591       0.00358027      -0.13003621
B        1.50393639      -0.32687944       3.01845542       0.00069614      -0.00094504       0.00047163
B        0.60482469       1.19447279       3.11677179      -0.00349183       0.00112693       0.00181259
B       -1.12051909       0.79698520       3.10477668      -0.00166240      -0.00036281      -0.00352266
B        0.02646062      -0.24941909       3.99024694       0.00080010       0.00183983      -0.00033715
B        0.35176544      -1.66545061       2.96454847      -0.00049323      -0.00001535      -0.00107449
C       -0.53398403      -1.39488747       1.56400000       0.19261427       0.56688303      -0.33843037
B        1.27342570       0.65716699       1.56216460       0.00272828       0.00204559      -0.00418652
B       -0.34899642       1.38835892       1.60967122       0.00015770      -0.00511759       0.00096974
B       -1.48623640       0.01228911       1.54031489       0.00446284       0.00118630       0.00289577
B       -1.27218700      -0.96000309       3.01779862      -0.00074724       0.00212343      -0.00362030
C        1.14300000       0.92400000      -1.55300000      -0.33606964      -0.05472198       0.38392559
B        1.63604423       0.18733968      -2.98337326       0.00063643       0.00226301      -0.00142406
B        0.68878936      -1.30237451      -3.07270675      -0.00417310      -0.00049902      -0.00326734
B       -1.02286434      -0.85298137      -3.12035249      -0.00247041       0.00170097       0.00262951
B        0.17848211       0.14358853      -3.98718002       0.00056806      -0.00066571       0.00032680
B        0.52244907       1.56249927      -2.97327584      -0.00063945       0.00071085       0.00113331
C       -0.40000000       1.32300000      -1.56800000       0.04060400      -0.10490887       0.08350119
B        1.32747073      -0.75173335      -1.50628963       0.00184382      -0.00273780       0.00489633
B       -0.31138304      -1.43571621      -1.59182470       0.00017817       0.00542123      -0.00136297
B       -1.41593424      -0.03605936      -1.58446557       0.00490544      -0.00154542      -0.00331963
B       -1.11784050       0.91010471      -3.05434382      -0.00040865      -0.00137699       0.00345512
Co       0.00000000       0.00000000       0.00000000       0.29569939      -0.41932166       0.00389091
H        1.67568600      -1.70378317       1.05468881       0.00116224      -0.00251433       0.00641977
H        2.59864343      -0.54536838       3.41102221       0.00162646       0.00068483      -0.00117263
H        1.05957833       2.13007809       3.68446756      -0.00041390      -0.00020863       0.00104755
H       -1.94002588       1.43972801       3.67085460       0.00130653      -0.00231218      -0.00055686
H        0.04487064      -0.34339782       5.17235879      -0.00035726      -0.00152387      -0.00092561
H        0.61106071      -2.77610059       3.27268648       0.00040710      -0.00023875      -0.00145928
H       -0.82564840      -2.29331018       1.04789340      -0.00058071       0.00054929       0.00273625
H        2.28505111       1.10107055       1.12044268       0.00038378       0.00051999       0.00642117
H       -0.60613633       2.49452840       1.24922284      -0.00299725       0.00592291       0.00089955
H       -2.58782790      -0.01499675       1.11219077      -0.00344452      -0.00353215      -0.00102007
H       -2.16849362      -1.62278465       3.41441467       0.00085309       0.00069504      -0.00321415
H        1.80787345       1.59525939      -1.03748285       0.00113973       0.00114640      -0.00434425
H        2.74651660       0.36250244      -3.35244068       0.00283154      -0.00042896       0.00201153
H        1.12854364      -2.26426171      -3.60730487      -0.00037048       0.00047167      -0.00100358
H       -1.84575633      -1.47939004      -3.69956569       0.00150490       0.00307602      -0.00024353
H        0.22758793       0.22054394      -5.16962203       0.00018453       0.00249072       0.00130886
H        0.80899100       2.66467857      -3.28716612       0.00077540       0.00091036       0.00227948
H       -0.67594723       2.25097215      -1.09551645      -0.00015561      -0.00071885      -0.00134454
H        2.30693027      -1.22466662      -1.02483109       0.00125148      -0.00010716      -0.00883565
H       -0.60490810      -2.52793746      -1.21706495      -0.00410455      -0.00579481      -0.00337341
H       -2.52717099       0.03830629      -1.18940598      -0.00440501       0.00419541       0.00131727
H       -1.97722870       1.60323464      -3.47952467       0.00095951       0.00005387       0.00372516
