45
Properties=species:S:1:pos:R:3:forces:R:3 charge=-1 spin=1 energy=-54314.386937158284 free_energy=-54314.386937158284 stress="1.3805100917816162 0.1524249017238617 0.5151724815368652 0.1524249017238617 0.3873456120491028 -0.5449500679969788 0.5151724815368652 -0.5449500679969788 0.8622727990150452" pbc="F F F"
C        0.94327096       1.08311490       1.55400000      -0.15790769      -0.20161675       0.04483411
B        0.20653240       1.51411174       3.01392753      -0.00141109      -0.00303468       0.00607899
B       -1.24346194       0.49942060       3.09108310      -0.00060136      -0.00201508      -0.00136639
B       -0.71660850      -1.19070252       3.06968946       0.00320290       0.00093740       0.00327745
B        0.23124458       0.02778582       3.97611085      -0.00325192      -0.00304516       0.00123507
B        1.62724249       0.46424930       2.96929986      -0.00031658      -0.00366040       0.00319431
C        1.42873844      -0.43538084       1.56400000      -0.43881184       0.38841966      -0.33192709
B       -0.75597519       1.22006081       1.55094941      -0.00564790      -0.00489182      -0.00215197
B       -1.36234684      -0.46116976       1.56856518      -0.00264834       0.00632306      -0.00396784
B        0.10284628      -1.48486267       1.50283268       0.00350628      -0.00174913      -0.00289554
B        1.04303689      -1.20858714       3.00489391       0.00182758       0.00287908       0.00381483
C        1.14300000       0.92400000      -1.55300000      -0.48894933      -0.35506812       0.01157511
B        1.61031778       0.17855949      -2.99176184      -0.00378773      -0.00164460      -0.00598450
B        0.63861895      -1.30006806      -3.06531124      -0.00251312      -0.00049911       0.00122184
B       -1.06816136      -0.83327334      -3.08873114       0.00130848       0.00252947      -0.00276322
B        0.13771499       0.14816044      -3.97720531      -0.00327706      -0.00479069      -0.00121357
B        0.51255142       1.56312940      -2.97440087      -0.00312587      -0.00075142      -0.00379079
C       -0.40000000       1.32300000      -1.56800000       0.22595018       0.20717704       0.27912557
B        1.30697361      -0.76733608      -1.51525118      -0.00481165      -0.00612515       0.00295970
B       -0.34950485      -1.43294155      -1.56234954       0.00554824      -0.00267565       0.00524447
B       -1.42853467      -0.01603017      -1.53725135      -0.00128704       0.00175566       0.00354382
B       -1.13922224       0.92412462      -3.03113837       0.00323880       0.00175307      -0.00539396
Co       0.00000000       0.00000000       0.00000000       0.89129865       0.00352131      -0.00658127
H        1.59673267       1.80334462       1.08808511       0.00091214       0.00583031       0.00347572
H        0.34256737       2.62040570       3.41369117      -0.00316682       0.00134887       0.00140961
H       -2.21462932       0.87404780       3.65739964      -0.00076912      -0.00269768      -0.00469402
H       -1.30104557      -2.05753879       3.62701063      -0.00149619      -0.00236477      -0.00411844
H        0.31368142       0.04458207       5.15900021      -0.00406584      -0.00218340      -0.00096929
H        2.71606366       0.80100670       3.28520339      -0.00144880      -0.00023654       0.00276142
H        2.35299663      -0.66255788       1.06159884       0.00612981      -0.00100631       0.00126431
H       -1.27286107       2.19623677       1.10831790      -0.00171711       0.00246691       0.00363484
H       -2.44351610      -0.80420316       1.22298091      -0.00068980      -0.00401852       0.00376366
H        0.23077311      -2.57624116       1.06600399       0.00167397      -0.00711851       0.00347849
H        1.76946762      -2.05593279       3.39815393      -0.00168811      -0.00133267      -0.00120972
H        1.82400912       1.60528350      -1.07010458       0.00553349       0.00150533      -0.00365924
H        2.71877157       0.33982101      -3.37626448       0.00049116      -0.00452353      -0.00028738
H        1.05800340      -2.26654484      -3.60789792      -0.00330933      -0.00146435       0.00663531
H       -1.90159441      -1.45060753      -3.66115353      -0.00229201      -0.00179667       0.00515272
H        0.17213408       0.22256672      -5.16026414      -0.00208440      -0.00537376       0.00157065
H        0.79952746       2.66653094      -3.28843877      -0.00016396      -0.00149821      -0.00384231
H       -0.67026850       2.25486607      -1.09878144      -0.00152723       0.00501919      -0.00193752
H        2.28353823      -1.26123834      -1.05018215       0.00456663      -0.00283305      -0.00425348
H       -0.65629044      -2.52163863      -1.20885856      -0.00499228      -0.00196887      -0.00431936
H       -2.53172509       0.08879966      -1.12309558      -0.00555548       0.00199308      -0.00236133
H       -1.99563023       1.63090685      -3.43993611      -0.00187327      -0.00147482       0.00043648
