45
Properties=species:S:1:pos:R:3:forces:R:3 charge=-1 spin=1 energy=-54314.555880563435 free_energy=-54314.555880563435 stress="0.7738237380981445 0.5844262838363647 -1.1332824230194092 0.5844262838363647 0.75972980260849 -1.2877558469772339 -1.1332824230194092 -1.2877558469772339 2.278179883956909" pbc="F F F"
C        0.17373977      -1.42573227       1.55400000       0.01685590       0.39436200      -0.10408442
B        0.96560149      -1.15529683       3.02649273       0.00289437       0.00130161      -0.00035038
B        1.16478948       0.60245569       3.12317062       0.00192360       0.00088051      -0.00231127
B       -0.44759789       1.33390659       3.09781962       0.00461348       0.00205504      -0.00304931
B       -0.17446743      -0.19472729       3.98791940       0.00442184       0.00424166      -0.00061030
B       -0.75969822      -1.52442851       2.96180069       0.00177201       0.00077035      -0.00039754
C       -1.27956364      -0.77043293       1.56400000       0.26214764       0.10567416      -0.62416637
B        1.39493957      -0.23572063       1.56789647      -0.00197873      -0.00022609       0.00117998
B        0.54093845       1.32337639       1.60827342      -0.00310120       0.00174474      -0.00093293
B       -1.18974620       0.91972394       1.52979667       0.00273403       0.00641955      -0.00376159
B       -1.62917655       0.02580414       3.00289789       0.00273579       0.00019642       0.00159578
C        1.14300000       0.92400000      -1.55300000      -0.39838368      -0.38511196       0.41216579
B        1.60511117       0.16847690      -2.98368570       0.00170937      -0.00303709       0.00171198
B        0.63304901      -1.30741564      -3.06684336       0.00018062      -0.00199766       0.00228640
B       -1.07375916      -0.83830657      -3.10653227       0.00121798      -0.00360364       0.00373655
B        0.13767979       0.14347808      -3.97979317      -0.00007446      -0.00518040       0.00072968
B        0.51120361       1.55906570      -2.97142896       0.00177355      -0.00174830       0.00037328
C       -0.40000000       1.32300000      -1.56800000       0.00139555       0.16975908       0.25255558
B        1.29730708      -0.77034401      -1.49839606      -0.00011459       0.00303694      -0.00206670
B       -0.35189317      -1.42739090      -1.57947727      -0.00487950       0.00123812      -0.00072366
B       -1.43298699      -0.01754555      -1.56977975      -0.00291223      -0.00599759       0.00241433
B       -1.14287628       0.92588295      -3.03930390       0.00101951      -0.00267959      -0.00132307
Co       0.00000000       0.00000000       0.00000000       0.08722341      -0.27820382       0.06628355
H        0.27995409      -2.37271323       1.05225799       0.00036667      -0.00399596      -0.00058958
H        1.70456234      -1.98370583       3.43551614       0.00256740       0.00090167      -0.00147710
H        2.08850634       1.07110979       3.69891960       0.00172510       0.00076782      -0.00426344
H       -0.71376882       2.34355768       3.65949303       0.00313004       0.00052214      -0.00338065
H       -0.22618759      -0.27948268       5.16978666       0.00367414       0.00283811      -0.00072483
H       -1.23498257      -2.56121392       3.27030478       0.00154945       0.00116503       0.00228979
H       -2.05464048      -1.30331989       1.03767872      -0.00399003      -0.00186089      -0.00043398
H        2.48210073      -0.47532484       1.16164182       0.00030566      -0.00080108      -0.00225748
H        1.00590705       2.35636028       1.23412293       0.00040832      -0.00178083      -0.00245447
H       -2.06773879       1.55356897       1.04298821      -0.00011385       0.00069612       0.00003291
H       -2.74946009       0.03318088       3.38489079       0.00066654       0.00302110       0.00136970
H        1.81193786       1.58998856      -1.03472662       0.00254298       0.00244067       0.00065581
H        2.71347481       0.32056012      -3.36847680       0.00094094      -0.00240666       0.00148542
H        1.05836519      -2.27313531      -3.60606155       0.00047404      -0.00168055       0.00342483
H       -1.90781861      -1.45504896      -3.68068731       0.00229071      -0.00100934       0.00332056
H        0.18174330       0.21925603      -5.16252705       0.00107366      -0.00380357       0.00048458
H        0.80363893       2.65811101      -3.29146220       0.00065272      -0.00131268      -0.00191037
H       -0.66737291       2.25035082      -1.08698601      -0.00175056       0.00345097       0.00031713
H        2.26834249      -1.27726443      -1.04627417       0.00057708      -0.00020124       0.00217679
H       -0.66150566      -2.51070110      -1.18801808       0.00063190       0.00102453       0.00221939
H       -2.52786958       0.07301962      -1.12044891      -0.00024663       0.00015107      -0.00042135
H       -1.99349435       1.63652180      -3.45442973      -0.00065044      -0.00202038      -0.00111884
