45
Properties=species:S:1:pos:R:3:forces:R:3 charge=-1 spin=1 energy=-242.2647705078125 free_energy=-242.2647705078125 stress="-5.385546941738539e-08 2.2235571606188387e-08 -1.2420278139302354e-08 2.2235571606188387e-08 -9.471573747532602e-08 1.0909931802416395e-07 -1.2420278139302354e-08 1.0909931802416395e-07 -1.2740355259666103e-07" pbc="F F F"
C        0.41867608      -1.37390259       1.55400000       0.10505565      -0.18035924       0.23194385
B        1.14711370      -1.00128438       3.03731963      -0.00024680       0.00032204       0.00059316
B        1.06708239       0.76680904       3.09689628       0.00275351      -0.00250442      -0.00202139
B       -0.65737076       1.22146843       3.07097177       0.00266017       0.00233158       0.00056674
B       -0.13010415      -0.23693588       3.97951325       0.00536782      -0.00057010       0.00030909
B       -0.48805262      -1.62764181       3.02229607       0.00169525       0.00031840      -0.00096371
C       -1.12633991      -0.98092222       1.56400000      -0.09329697      -0.00484365      -0.01391053
B        1.42932302      -0.02927495       1.55375644      -0.00094151       0.00536835      -0.00227812
B        0.32908475       1.38652504       1.60514023      -0.00267696       0.00043815      -0.00036640
B       -1.32099743       0.68690732       1.51114227      -0.00348267      -0.00361320       0.00185663
B       -1.59961986      -0.27472076       3.01634108      -0.00052065      -0.00229529      -0.00324595
C        1.14300000       0.92400000      -1.55300000       0.12289666       0.02652976      -0.09692702
B        1.62115240       0.19869103      -2.99834012      -0.00058469       0.00122039      -0.00035512
B        0.67414537      -1.29529152      -3.03936998       0.00295831       0.00079319       0.00151691
B       -1.04964727      -0.83767654      -3.07861804       0.00154360      -0.00334156      -0.00058859
B        0.15469003       0.15168368      -3.96963948       0.00491934      -0.00088795       0.00001682
B        0.51324677       1.55349787      -3.02955684       0.00213620      -0.00136278       0.00100826
C       -0.40000000       1.32300000      -1.56800000      -0.15202077       0.25695038      -0.21859869
B        1.33625042      -0.74109481      -1.48738077      -0.00351951      -0.00266567       0.00296614
B       -0.31739776      -1.43424423      -1.57665261      -0.00253905       0.00070390       0.00067741
B       -1.41828451      -0.02001326      -1.55174937      -0.00084648       0.00461228      -0.00102749
B       -1.12443289       0.93006809      -3.04800146       0.00085683       0.00213204       0.00258215
Co       0.00000000       0.00000000       0.00000000       0.01626695      -0.10066552       0.09906183
H        0.71862966      -2.29620058       1.04733685      -0.00419337      -0.00011610      -0.00110419
H        2.03394036      -1.68829839       3.44100262       0.00063926       0.00182654      -0.00110653
H        1.88945414       1.40413190       3.68233898       0.00002958      -0.00009203      -0.00221786
H       -1.07466925       2.18780648       3.63376583       0.00014285       0.00192547       0.00170821
H       -0.14893215      -0.25781441       5.16967990       0.00225144       0.00032815       0.00074959
H       -0.77949733      -2.73823866       3.32507134       0.00129430       0.00119317       0.00042756
H       -1.82829021      -1.63355182       1.03634263       0.00052969       0.00276819       0.00078498
H        2.54096379      -0.11406730       1.12365342      -0.00088759       0.00253588       0.00054093
H        0.61925031       2.47327593       1.19287461      -0.00106742      -0.00027348      -0.00049993
H       -2.31487825       1.15625148       1.04322957      -0.00185410      -0.00208516      -0.00139158
H       -2.71881694      -0.41960808       3.40080545       0.00038084      -0.00021228       0.00183041
H        1.84548387       1.58361498      -1.03455767      -0.00164106       0.00023345      -0.00254510
H        2.74116585       0.33828050      -3.38187402      -0.00083217      -0.00114411       0.00128002
H        1.08944563      -2.27006717      -3.58901706       0.00018986       0.00007702       0.00161428
H       -1.87040899      -1.48249423      -3.65758695      -0.00058270      -0.00172316      -0.00146824
H        0.17817496       0.15602260      -5.15986868       0.00140175      -0.00107192      -0.00030755
H        0.80888607       2.65915094      -3.34577212       0.00016584      -0.00190893      -0.00004953
H       -0.70097838       2.25676521      -1.08178122      -0.00158363      -0.00266606      -0.00007102
H        2.32336068      -1.20795744      -1.00406345      -0.00183985      -0.00149489      -0.00151196
H       -0.60633134      -2.50928986      -1.13506966      -0.00058593       0.00040157       0.00075711
H       -2.52942698       0.07194114      -1.12146463      -0.00070779       0.00293684       0.00121680
H       -2.00826021       1.61326113      -3.46427722       0.00031599      -0.00004885      -0.00145148
