45
Properties=species:S:1:pos:R:3:forces:R:3 charge=-1 spin=1 energy=-242.2862091064453 free_energy=-242.2862091064453 stress="-6.443166711278536e-08 9.157874458765036e-09 -5.150639381668043e-08 9.157874458765036e-09 -9.776274367823135e-08 6.318730072507606e-08 -5.150639381668043e-08 6.318730072507606e-08 -2.031673176361437e-07" pbc="F F F"
C        1.37390259       0.41867608       1.55400000       0.14980352       0.12399441       0.30700794
B        0.98752569       1.15489330       3.02602656      -0.00241154       0.00428051       0.00156884
B       -0.77754823       1.07861719       3.07950802      -0.00214297       0.00156978       0.00412674
B       -1.23279393      -0.64752607       3.05571869      -0.00038329       0.00046283       0.00371436
B        0.21397949      -0.12118096       3.97194594      -0.00210438       0.00169447       0.00078160
B        1.61062810      -0.48508825       3.02584450       0.00305060       0.00267733       0.00127669
C        0.98092222      -1.12633991       1.56400000       0.00572085      -0.10071316       0.05050018
B        0.02921427       1.43639656       1.54849710       0.00040731      -0.00229371      -0.00564940
B       -1.38807987       0.33970002       1.58151767       0.00129777       0.00105418      -0.00527011
B       -0.68293454      -1.30891922       1.47879371      -0.00910311       0.00115973      -0.00220455
B        0.25946626      -1.59264058       3.01394808      -0.00694682      -0.00144909       0.00491981
C        1.14300000       0.92400000      -1.55300000       0.09076373      -0.00905395      -0.19457601
B        1.61801979       0.19593098      -2.99589452       0.00132328      -0.00575032      -0.00436032
B        0.67453778      -1.29597429      -3.04233714      -0.00091435      -0.00151385      -0.00510099
B       -1.05153790      -0.83754795      -3.07473062       0.00056265      -0.00053079      -0.00501242
B        0.14593325       0.14867460      -3.96914416      -0.00026401      -0.00294251      -0.00031786
B        0.50463067       1.54987403      -3.02828360       0.00134366       0.00201438      -0.00152271
C       -0.40000000       1.32300000      -1.56800000      -0.14969081       0.32511798      -0.22910577
B        1.34112254      -0.74324868      -1.50264482       0.00185621      -0.00108394       0.00456972
B       -0.30925721      -1.43788265      -1.57241416       0.00042967      -0.00236264       0.00437957
B       -1.40581196      -0.01968355      -1.52074120      -0.00073266      -0.00645246       0.00335288
B       -1.12976402       0.92527623      -3.04469263      -0.00507703      -0.00355473      -0.00373083
Co       0.00000000       0.00000000       0.00000000      -0.08571848      -0.34205455       0.07262570
H        2.31149728       0.71249591       1.07244788       0.00189233       0.00027309      -0.00277182
H        1.67611079       2.03721417       3.43605174      -0.00039002       0.00100574       0.00012107
H       -1.41830773       1.90129949       3.65983245      -0.00156908       0.00043730       0.00069424
H       -2.20683486      -1.06521037       3.60556630       0.00147970      -0.00020400      -0.00031883
H        0.22893814      -0.13447340       5.16200451      -0.00092396       0.00144308      -0.00332937
H        2.71705571      -0.77613202       3.34214607       0.00341740       0.00027764       0.00187442
H        1.63614793      -1.83161025       1.04633506       0.00268297       0.00269246      -0.00373757
H        0.10489575       2.53979702       1.08956983      -0.00018544      -0.00121287       0.00364762
H       -2.47920112       0.61907311       1.17970953       0.00099361       0.00006197       0.00263809
H       -1.15487351      -2.31138601       1.03301020       0.00174919       0.00075499      -0.00022178
H        0.39282093      -2.71187138       3.40107110       0.00154611      -0.00235686       0.00186649
H        1.85043830       1.59536671      -1.05736935       0.00129615       0.00217716       0.00286974
H        2.73420269       0.34245538      -3.38683075       0.00044227       0.00023612      -0.00035298
H        1.08630963      -2.26946683      -3.59600060      -0.00120103       0.00042425      -0.00081297
H       -1.87807451      -1.48428046      -3.64379644      -0.00042507       0.00125151       0.00024167
H        0.16979043       0.15485885      -5.15905577      -0.00068947      -0.00083299       0.00354606
H        0.79819397       2.65439515      -3.34875975       0.00122788       0.00368720      -0.00167993
H       -0.70063928       2.25636126      -1.08187247      -0.00026447       0.00345677       0.00153197
H        2.31885291      -1.21586014      -1.00178320      -0.00135089      -0.00030655      -0.00418092
H       -0.60838370      -2.52079842      -1.16596882       0.00022103       0.00004039      -0.00317942
H       -2.52084241       0.07298821      -1.09954526       0.00148065      -0.00057810       0.00038800
H       -2.01945052       1.60240965      -3.45745231      -0.00249968       0.00300211      -0.00080699
