45
Properties=species:S:1:pos:R:3:forces:R:3 charge=-1 spin=1 energy=-242.234375 free_energy=-242.234375 stress="-8.759484870779488e-08 2.9490248465435798e-08 4.113327989330173e-08 2.9490248465435798e-08 -5.0986809441155856e-08 2.145955946275535e-08 4.113327989330173e-08 2.145955946275535e-08 -1.9999764333533676e-07" pbc="F F F"
C       -1.17578015       0.82488729       1.55400000      -0.25318402       0.06978282       0.21191196
B       -1.52480663       0.05452523       3.01877683      -0.00113682      -0.00507532       0.00093363
B       -0.37586112      -1.28384456       3.06792646       0.00800768      -0.00060642       0.00122982
B        1.26495998      -0.57661639       3.06081693      -0.00335564       0.00331642       0.00403479
B       -0.05561317       0.22765683       3.96893885       0.00672860       0.00087199      -0.00173380
B       -0.62563336       1.55444335       3.02095477       0.00427326       0.00083432       0.00334604
C        0.28365195       1.46642135       1.56400000       0.06077592       0.02319601       0.15803842
B       -1.13726338      -0.85891024       1.51137500      -0.00120211      -0.00268916       0.00615230
B        0.59515554      -1.29244481       1.56972931       0.00194070       0.00510496      -0.00737818
B        1.47305690       0.28285329       1.52677488       0.00346112      -0.00470595      -0.00137110
B        1.08625230       1.17871378       3.01671255       0.00010026      -0.00513497       0.00645832
C        1.14300000       0.92400000      -1.55300000       0.14448398      -0.01526305      -0.15868568
B        1.61571971       0.17086563      -2.98609662       0.00286435      -0.00395416       0.00263804
B        0.66821260      -1.31747376      -3.00979424      -0.00569117      -0.00400110       0.00248381
B       -1.05747735      -0.85828152      -3.05323046       0.00081851       0.00400972      -0.00209124
B        0.15012895       0.11103980      -3.95538138      -0.00709092       0.00126447       0.00130867
B        0.51158836       1.52481532      -3.03248357      -0.00764069      -0.00045863      -0.00133985
C       -0.40000000       1.32300000      -1.56800000      -0.15782413       0.22742434      -0.28583989
B        1.32813642      -0.74534484      -1.45223412       0.00281876      -0.00180458      -0.00646855
B       -0.32272061      -1.43223903      -1.52746665      -0.00334813       0.00491771       0.00771973
B       -1.42931134      -0.01267790      -1.54553396      -0.00253820      -0.00364254       0.00298555
B       -1.13031210       0.90553001      -3.03698113       0.00373958      -0.00121012      -0.00258732
Co       0.00000000       0.00000000       0.00000000       0.19601157      -0.29010782       0.06216835
H       -1.98749541       1.36777858       1.05888931      -0.00071470       0.00259120       0.00176744
H       -2.64713730       0.04175972       3.41908123      -0.00438216      -0.00028085      -0.00110546
H       -0.63287668      -2.30511868       3.63042628       0.00086134       0.00138603       0.00063852
H        2.18213425      -1.09465610       3.62232993      -0.00255044       0.00445120       0.00021867
H       -0.05967459       0.24429935       5.15867595      -0.00070208       0.00108152      -0.00401628
H       -1.08093538       2.60294927       3.34117834      -0.00247523       0.00257692      -0.00135392
H        0.43391945       2.43413306       1.07436502       0.00103656      -0.00610109      -0.00014174
H       -2.06638941      -1.46798386       1.06929721       0.00171994      -0.00096644      -0.00083107
H        1.05351750      -2.32885659       1.18705998       0.00204021       0.00116058       0.00161574
H        2.53575118       0.51836488       1.03365368       0.00137314       0.00312580       0.00104953
H        1.86649212       1.98156424       3.42549166      -0.00229362       0.00099766      -0.00032319
H        1.85606531       1.58731549      -1.05461000       0.00019315      -0.00135057      -0.00238474
H        2.73391553       0.30266821      -3.37585472       0.00588822      -0.00123862       0.00202265
H        1.08113298      -2.30425391      -3.53980068       0.00047567      -0.00156735       0.00092848
H       -1.87622532      -1.51505817      -3.62173445       0.00162610       0.00273649       0.00013102
H        0.17057757       0.10443664      -5.14506870       0.00198074      -0.00131652       0.00226180
H        0.80584094       2.62409438      -3.37092508       0.00249524      -0.00027636       0.00054076
H       -0.69843282       2.27540636      -1.11602955       0.00102077      -0.00903712      -0.00276857
H        2.31931290      -1.20490757      -0.96946574      -0.00232048      -0.00063880       0.00141256
H       -0.62153981      -2.51729028      -1.12279885      -0.00269392       0.00114076      -0.00070330
H       -2.52624900       0.07898283      -1.07726643      -0.00003082       0.00099149      -0.00230731
H       -2.00671217       1.58846785      -3.46888774       0.00443994      -0.00153506      -0.00056513
