45
Properties=species:S:1:pos:R:3:forces:R:3 charge=-1 spin=1 energy=-54314.39557363289 free_energy=-54314.39557363289 stress="0.9756567478179932 -0.3745119869709015 0.24559509754180908 -0.3745119869709015 0.8283984065055847 -0.6765339374542236 0.24559509754180908 -0.6765339374542236 0.8622602820396423" pbc="F F F"
C        1.34135047       0.51349481       1.55400000       0.06854175      -0.21239229      -0.06646580
B        0.91780657       1.24830730       3.01555180      -0.00017483      -0.00022937       0.00296539
B       -0.83957569       1.06564045       3.09905277       0.00011014       0.00190527       0.00355398
B       -1.19785230      -0.66849604       3.07971154       0.00179321       0.00214671       0.00175937
B        0.22343355      -0.06397564       3.97940236       0.00402678      -0.00017093       0.00365436
B        1.65401891      -0.35845860       2.96783854       0.00298861       0.00045681      -0.00059063
C        1.05710224      -1.05517053       1.56400000      -0.64443266       0.52139825      -0.26389879
B       -0.06659711       1.44754603       1.55246807       0.00180131      -0.00004315      -0.00048518
B       -1.41261484       0.28088510       1.58396431       0.00185886       0.00209880       0.00480351
B       -0.63124190      -1.32755836       1.51454360      -0.00486192      -0.00415251      -0.00040413
B        0.33472390      -1.53963598       3.00587536       0.00269464      -0.00073995      -0.00097544
C        1.14300000       0.92400000      -1.55300000      -0.39736658       0.03091181       0.18775779
B        1.63570532       0.19718126      -2.99094353       0.00038490       0.00066864      -0.00148397
B        0.69797979      -1.29907200      -3.06890898      -0.00040044       0.00064461      -0.00408553
B       -1.01832234      -0.86491131      -3.09771511      -0.00062693       0.00189418      -0.00186785
B        0.16798021       0.13959564      -3.98004694       0.00087295       0.00354670      -0.00438124
B        0.51122955       1.56166358      -2.97437663       0.00017619       0.00290854      -0.00128460
C       -0.40000000       1.32300000      -1.56800000       0.02987965      -0.21306732       0.15562959
B        1.34016554      -0.74518110      -1.51307876       0.00142290       0.00099917       0.00278621
B       -0.29290288      -1.44884080      -1.57573158       0.00276541       0.00031130      -0.00496882
B       -1.40664904      -0.05444538      -1.55143945      -0.00516033      -0.00114621      -0.00179953
B       -1.12671581       0.89435865      -3.03618068      -0.00055950       0.00287851       0.00019724
Co       0.00000000       0.00000000       0.00000000       0.91508430      -0.15345888      -0.00529130
H        2.25560584       0.82441413       1.07283303       0.00179308       0.00051017      -0.00151654
H        1.57438371       2.15121060       3.41009683       0.00209468      -0.00032494      -0.00150458
H       -1.50725317       1.86511216       3.66371358       0.00018393       0.00310527       0.00325211
H       -2.12680295      -1.14642472       3.63880969       0.00349785       0.00095706       0.00169526
H        0.30606248      -0.08945436       5.16188422       0.00357407       0.00163502       0.00530806
H        2.77017113      -0.58251855       3.28596089       0.00343422      -0.00013763      -0.00066718
H        1.75626071      -1.69467326       1.05556195       0.00380622      -0.00415803      -0.00351722
H       -0.03796770       2.54908768       1.09892424       0.00005223       0.00346619       0.00026610
H       -2.52380953       0.51218229       1.23832581      -0.00081098      -0.00131164       0.00220240
H       -1.06690231      -2.34081395       1.08963023      -0.00208635      -0.00915502      -0.00165330
H        0.55583287      -2.63185510       3.40343521       0.00208357      -0.00044654       0.00228172
H        1.80608082       1.61447417      -1.05668806       0.00205664       0.00093098       0.00185234
H        2.74340879       0.38217717      -3.36599476       0.00098785       0.00282849      -0.00071717
H        1.13724370      -2.25978695      -3.60563432       0.00156756       0.00079656      -0.00397021
H       -1.83977984      -1.49745197      -3.67103286       0.00022766       0.00245612      -0.00289961
H        0.20413996       0.21422877      -5.16272061       0.00112675       0.00427110      -0.00618707
H        0.78716093       2.66601985      -3.29229311       0.00080862       0.00457705       0.00129142
H       -0.67925949       2.25047980      -1.09770757      -0.00171453       0.00327424       0.00243072
H        2.32778897      -1.20421348      -1.03102129       0.00574591      -0.00345690      -0.00052482
H       -0.56931478      -2.54569341      -1.22021559      -0.00186616      -0.00167171      -0.00254895
H       -2.51696527       0.01190104      -1.15013818      -0.00683785       0.00164267       0.00095022
H       -1.99632061       1.57865871      -3.45463909      -0.00054333       0.00284281      -0.00094827
