45
Properties=species:S:1:pos:R:3:forces:R:3 charge=-1 spin=1 energy=-54314.533001916585 free_energy=-54314.533001916585 stress="-0.02257763035595417 -0.07324039191007614 -0.07975266128778458 -0.07324039191007614 0.02660537324845791 -0.14958907663822174 -0.07975266128778458 -0.14958907663822174 0.3065699636936188" pbc="F F F"
C       -0.17970608      -1.45248633       1.47389031      -0.01932135      -0.00117752      -0.00152538
B        0.62502782      -1.48293269       2.96286088      -0.00242663       0.00882835       0.02254682
B        1.30161757       0.14170148       3.13362021       0.01061108      -0.00411980      -0.01726865
B       -0.04096094       1.28953173       3.13688764       0.01347085       0.00156166      -0.01082480
B       -0.21926695      -0.28732239       3.96083614      -0.00498091       0.00330238      -0.00729599
B       -1.13077418      -1.35338492       2.86961006       0.00160277       0.00121698       0.01471289
C       -1.39195261      -0.43024948       1.48592744      -0.00871367       0.00865641      -0.01808295
B        1.31508203      -0.66390730       1.54376057      -0.01423355       0.00987025      -0.01181121
B        0.92538152       1.05819329       1.63600000      -0.06750757       0.13151367       0.13515095
B       -0.85266965       1.17243799       1.56122621       0.01145874       0.01122397      -0.02385820
B       -1.53893986       0.36504811       2.97952954       0.00055924       0.00991675      -0.01491932
C        1.07953461       0.96866459      -1.47055315      -0.01243508       0.01793966       0.00070205
B        1.61053781       0.30740655      -2.93591983      -0.00627373      -0.00463458      -0.02112727
B        0.71596299      -1.21016743      -3.09434655       0.00876200      -0.00608467       0.01850243
B       -1.00663353      -0.82000419      -3.13930849       0.00918187      -0.01271309       0.01015112
B        0.16758963       0.24854951      -3.96210038      -0.00565322       0.00301408       0.00863102
B        0.45618082       1.63967677      -2.89459395       0.00275659      -0.00203456      -0.01233975
C       -0.46620321       1.32902734      -1.52117807      -0.01045769       0.00312973       0.01900280
B        1.33758131      -0.70632890      -1.50135051      -0.01651974       0.00696816       0.01285241
B       -0.27500000      -1.43300000      -1.61500000      -0.07835372       0.17948849      -0.11763243
B       -1.42489383      -0.06704875      -1.58579647      -0.00100666      -0.01414644       0.02521409
B       -1.16264209       0.93635692      -3.02032258      -0.00560579      -0.00566582       0.01733129
Co       0.00000000       0.00000000       0.00000000       0.25504047      -0.37586147      -0.02435509
H       -0.33085003      -2.37582574       0.94241321       0.00518364      -0.01257361      -0.00254678
H        1.09717412      -2.50353935       3.32997185       0.00148825       0.00079491      -0.00828011
H        2.31197484       0.31344241       3.72818598      -0.00067631       0.00669032      -0.00798400
H       -0.01884662       2.31012487       3.73987983      -0.00895556       0.00201537      -0.01247961
H       -0.31280698      -0.40467979       5.13748480       0.00354622       0.00662607      -0.00933814
H       -1.88231294      -2.23045191       3.11769961       0.00164034      -0.00541084       0.00169353
H       -2.28839316      -0.72346712       0.96772193      -0.01067519       0.00812907      -0.01757704
H        2.29509404      -1.19000453       1.14398695      -0.00416574       0.00162644       0.01171844
H        1.66714485       1.93733121       1.32490189      -0.00519995       0.00233965      -0.00874656
H       -1.52460807       2.04724638       1.12303202      -0.01306955       0.01314392      -0.02441706
H       -2.62063404       0.66640913       3.35421786      -0.00121340      -0.00348406      -0.00463929
H        1.72040645       1.65454172      -0.94385456       0.01278341       0.00059647       0.00338939
H        2.71777869       0.53065973      -3.28702262       0.00226142      -0.00199557       0.00727205
H        1.19625198      -2.13289105      -3.66176538      -0.00593146      -0.00215833       0.00736194
H       -1.80178817      -1.45751480      -3.74521762      -0.00605680       0.00670977       0.01053955
H        0.22870158       0.36956675      -5.14054556      -0.00205906      -0.00576384       0.01093971
H        0.71518835       2.76041714      -3.16383999       0.00680662       0.00167034      -0.00065793
H       -0.77852860       2.23406797      -1.02946997      -0.01322530       0.00450457       0.01633354
H        2.33775296      -1.16744551      -1.07212783      -0.00337641      -0.00019215      -0.01292537
H       -0.54293754      -2.54464848      -1.28267718      -0.00570890       0.00198903       0.00740523
H       -2.53638214      -0.04033968      -1.17043570      -0.01808629       0.00222764       0.02388864
H       -2.04379592       1.61474321      -3.42633214       0.00473533       0.00232235       0.00529327
