45
Properties=species:S:1:pos:R:3:forces:R:3 charge=-1 spin=1 energy=-54314.344761865315 free_energy=-54314.344761865315 stress="1.3552263975143433 -0.08182186633348465 0.2279016673564911 -0.08182186633348465 0.9258139729499817 -0.557081937789917 0.2279016673564911 -0.557081937789917 0.48582571744918823" pbc="F F F"
C        1.26641556       0.67756154       1.55400000      -0.09458455      -0.19752844       0.04781576
B        0.74403829       1.34427183       3.02090654       0.01114649      -0.00571512       0.00841268
B       -0.97237504       0.92062726       3.11007706       0.01112980      -0.00190835      -0.01376451
B       -1.08931770      -0.84656522       3.08509248      -0.00802720       0.01992874       0.01385280
B        0.23808908      -0.05405444       3.98433701       0.00499044       0.00666147      -0.00287607
B        1.69131898      -0.14646406       2.96764991       0.00571867      -0.00774258      -0.00969073
C        1.18101461      -0.91436016       1.56400000      -0.47306681       0.42085949      -0.30618417
B       -0.26348602       1.41195699       1.56290281       0.01664740       0.03081855      -0.02226946
B       -1.43644233       0.06895556       1.59220881      -0.03094313       0.02599713      -0.02175673
B       -0.44481636      -1.41529390       1.51467297       0.00272890       0.01543140       0.01370762
B        0.54541714      -1.49720134       3.00534452      -0.00547019       0.00166980       0.00967453
C        1.14300000       0.92400000      -1.55300000      -0.45781952      -0.17266628       0.08845198
B        1.62419455       0.17887903      -2.98978143      -0.00493659       0.01668559      -0.01445253
B        0.66778557      -1.30782182      -3.06307080      -0.00305491       0.01743706      -0.00142241
B       -1.04384276      -0.85331747      -3.09097515       0.00461776      -0.00351632      -0.01089637
B        0.15426906       0.13345726      -3.97825590       0.00056974       0.00732907       0.00034207
B        0.51480672       1.55482042      -2.97761316      -0.01028963       0.01045351       0.00808840
C       -0.40000000       1.32300000      -1.56800000       0.09341490      -0.04558447       0.17732999
B        1.32149445      -0.75704413      -1.51228300       0.03523826       0.00837593       0.01787500
B       -0.32377741      -1.44302642      -1.56882015       0.01373338      -0.04190898       0.01292161
B       -1.42039887      -0.03644044      -1.54503893       0.01832698       0.00013367      -0.00080165
B       -1.13059472       0.90522340      -3.03474695      -0.00694404      -0.00653881      -0.00142975
Co       0.00000000       0.00000000       0.00000000       0.82106781      -0.16353740       0.03032585
H        2.13196853       1.11017608       1.07720761      -0.00549795      -0.01079400       0.01418075
H        1.27000746       2.32797372       3.41841898       0.00505408      -0.00386651      -0.00402172
H       -1.74296753       1.61975142       3.67825293       0.01486717      -0.00479213      -0.00578914
H       -1.94254202      -1.44838662       3.64396204      -0.00958575      -0.00074930       0.00856142
H        0.32775428      -0.07170223       5.16670746       0.00138036       0.00359541      -0.00097977
H        2.82939275      -0.22346548       3.27790613       0.00221529       0.00095065       0.00453887
H        1.95832684      -1.45774441       1.05684644      -0.00139765       0.00952656       0.01647684
H       -0.38929326       2.51052165       1.11776299       0.00078607      -0.01346777       0.01979523
H       -2.57174602       0.14613817       1.25458287       0.02594247      -0.00408663       0.01962846
H       -0.73642721      -2.47970158       1.08973401       0.01510416       0.02039509       0.02207179
H        0.91841940      -2.55080749       3.39288987       0.00112055      -0.00298402       0.01132108
H        1.81371188       1.61113441      -1.06289246      -0.00583496      -0.00511596      -0.01587479
H        2.73363266       0.34656551      -3.36809262      -0.00227287       0.01019677      -0.00069075
H        1.09537414      -2.27697569      -3.59513450       0.00054149       0.01845370      -0.00312751
H       -1.87319219      -1.47876378      -3.65966722      -0.00350927      -0.00451916      -0.01290042
H        0.18915061       0.20313035      -5.16142384       0.00181628       0.00842010      -0.00178784
H        0.79714491       2.65676583      -3.29855136       0.00000168       0.00562371       0.00065191
H       -0.67467888       2.25448033      -1.10242180       0.00574574      -0.00205700      -0.00801398
H        2.30772914      -1.22733709      -1.03778439      -0.01159267      -0.00069042      -0.03015598
H       -0.61313113      -2.53817962      -1.21602553       0.00281410       0.03488133      -0.03170315
H       -2.52916749       0.04690341      -1.14080885       0.01757892       0.00371195      -0.01926023
H       -1.99332139       1.59992701      -3.45026091       0.00052886       0.00223291      -0.00617497
