45
Properties=species:S:1:pos:R:3:forces:R:3 charge=-1 spin=1 energy=-54314.49928762215 free_energy=-54314.49928762215 stress="0.9497516751289368 0.21890190243721008 -0.13881297409534454 0.21890190243721008 1.0461491346359253 -1.272733449935913 -0.13881297409534454 -1.272733449935913 1.9070273637771606" pbc="F F F"
C        1.36084221      -0.45935442       1.55400000      -0.25897816       0.08895622       0.04743935
B        1.48072816       0.37954225       3.02179856      -0.00011455       0.00033921       0.00107881
B       -0.00942272       1.33278436       3.11726177      -0.00171709       0.00141000      -0.00813009
B       -1.37193464       0.20151442       3.09546488      -0.00191128       0.00386305      -0.00785600
B        0.12214314      -0.21672374       3.98840254      -0.00309377       0.00264838      -0.00674684
B        1.05412773      -1.33306605       2.96624318       0.00262410      -0.00037759      -0.00668431
C        0.14192026      -1.48684520       1.56400000       0.08535168       0.54033381      -0.47460824
B        0.83403438       1.15680599       1.56796602      -0.02304828       0.00792532      -0.00383321
B       -0.94544159       1.08126042       1.60423375       0.00136304       0.00692354      -0.01927577
B       -1.33958919      -0.65977063       1.52393182       0.00024033       0.01866897      -0.03544519
B       -0.71520596      -1.43272731       3.01034784       0.00143305       0.00028359       0.00246454
C        1.14300000       0.92400000      -1.55300000      -0.39113703      -0.32446682       0.19604747
B        1.61930545       0.16622499      -2.98525435       0.00023757       0.00324509      -0.00363773
B        0.65495568      -1.31693442      -3.06048587      -0.00102576       0.00357671       0.00120530
B       -1.05407296      -0.85358596      -3.09600545      -0.00121073       0.00187160       0.00153278
B        0.15380810       0.12597779      -3.97896325      -0.00480648       0.00366669       0.00309478
B        0.51860746       1.54902536      -2.97831237       0.00063186       0.00576457       0.00734090
C       -0.40000000       1.32300000      -1.56800000       0.12477107       0.01519635       0.27243736
B        1.31001211      -0.76338161      -1.50776989      -0.01998251      -0.01726203      -0.00304412
B       -0.33833271      -1.43766982      -1.57240814      -0.00060431      -0.00534986       0.01276977
B       -1.42925639      -0.02521940      -1.55684334       0.00678427      -0.01435060       0.03421356
B       -1.12953214       0.90803933      -3.04150824       0.00260691       0.00367049      -0.00617030
Co       0.00000000       0.00000000       0.00000000       0.49853712      -0.37798512       0.03246536
H        2.26481373      -0.78023351       1.06578929      -0.00874761      -0.00042521       0.00289219
H        2.55515483       0.67768803       3.41903253       0.00283072      -0.00205764       0.00090915
H       -0.02548242       2.37229650       3.68685243      -0.00215040      -0.00521882      -0.00244223
H       -2.39284447       0.40570362       3.66163729      -0.00524180      -0.00205290      -0.00528951
H        0.17694450      -0.29437916       5.17085422      -0.00481888      -0.00135019      -0.00822182
H        1.78101322      -2.21186589       3.27562500      -0.00094651       0.00006709       0.00236630
H        0.28293359      -2.42115255       1.04801677       0.00335438      -0.01079258      -0.01666843
H        1.53657504       2.01485677       1.13420948      -0.00575801       0.00954181      -0.01095821
H       -1.67213603       1.95228739       1.24111723       0.01110720      -0.00814739      -0.01657929
H       -2.30680679      -1.18682976       1.09130467       0.00926745      -0.00094821      -0.04607892
H       -1.21810674      -2.42879544       3.40312765      -0.00363845      -0.00509958      -0.00354433
H        1.81535776       1.59719887      -1.05002763      -0.00320726       0.00230110       0.00167306
H        2.72939711       0.32466952      -3.36392557       0.00228982       0.00869947      -0.00267975
H        1.08426358      -2.28714695      -3.58926011      -0.00289162       0.00984353      -0.00684428
H       -1.88423236      -1.47639491      -3.66809082      -0.00428596       0.00466369      -0.00352433
H        0.19553827       0.19347878      -5.16237403      -0.00365675       0.00945353       0.00522501
H        0.80632105       2.64758063      -3.30418871      -0.00083651       0.00439691       0.00217816
H       -0.67172208       2.25419954      -1.09859115      -0.00122723       0.01099635       0.01227724
H        2.28902142      -1.25051107      -1.03807250      -0.00342408      -0.01785701       0.00125220
H       -0.64157927      -2.52350039      -1.18856539       0.00344916       0.01414260       0.01273452
H       -2.53707221       0.07080341      -1.15280670       0.00560764       0.00397130       0.04128824
H       -1.98494639       1.60642845      -3.46518444      -0.00402617       0.00732055       0.00337704
