45
Properties=species:S:1:pos:R:3:forces:R:3 charge=-1 spin=1 energy=-242.29762268066406 free_energy=-242.29762268066406 stress="-9.498369024640851e-08 2.025812628758672e-09 6.475730884858422e-08 2.025812628758672e-09 -5.3365720731335387e-08 5.4727660625530916e-08 6.475730884858422e-08 5.4727660625530916e-08 -2.0776367648522864e-07" pbc="F F F"
C       -1.43603704       0.02637464       1.55400000      -0.26008683      -0.05448118       0.21272339
B       -1.30320891      -0.80025696       3.02709185      -0.00474690       0.00041449      -0.00384747
B        0.39803596      -1.26083871       3.08820708       0.00121113       0.00177246       0.00236920
B        1.35786563       0.24414376       3.08436906       0.00083543      -0.00109548       0.00274301
B       -0.19354249       0.17253870       3.98029218      -0.00359989      -0.00265629       0.00198727
B       -1.40199362       0.94558778       3.02063879      -0.00499597      -0.00128513      -0.00665472
C       -0.58485429       1.37433455       1.56400000       0.02659261       0.04056543       0.14994606
B       -0.45558895      -1.33756357       1.51348057      -0.00025429       0.00395593       0.00125205
B        1.22174498      -0.72741523       1.59975770       0.00158638       0.00452119      -0.00048830
B        1.06083501       1.05647776       1.53876823       0.00075890       0.00025758      -0.00170214
B        0.22469809       1.59512711       3.02460284       0.00352779       0.00029328      -0.00097780
C        1.14300000       0.92400000      -1.55300000       0.13703156      -0.00551581      -0.14500082
B        1.61999945       0.17300070      -2.98924722       0.00247182       0.00585764       0.00134531
B        0.66837525      -1.31199188      -3.01803396      -0.00107570      -0.00108641      -0.00151180
B       -1.05429647      -0.84819368      -3.06889263       0.00067876      -0.00045179      -0.00302062
B        0.15889426       0.12129245      -3.96276612       0.00528828       0.00001181      -0.00099298
B        0.52060313       1.53048331      -3.03526838       0.00381618       0.00190797       0.00549518
C       -0.40000000       1.32300000      -1.56800000      -0.13380629       0.20534332      -0.32154155
B        1.31808213      -0.74215069      -1.44575514      -0.00479555       0.00461339       0.00219579
B       -0.33131428      -1.43111963      -1.54696420      -0.00627376      -0.00047314      -0.00129668
B       -1.42621293      -0.01225501      -1.55605444      -0.00058153      -0.00091101       0.00106232
B       -1.12140508       0.91630141      -3.04523407      -0.00254186       0.00011760      -0.00045902
Co       0.00000000       0.00000000       0.00000000       0.24358369      -0.21463673       0.09915728
H       -2.40693199       0.02185400       1.05064411       0.00307406       0.00542512       0.00103654
H       -2.22627198      -1.44460253       3.41832423      -0.00211324      -0.00012425       0.00058296
H        0.75268208      -2.24934203       3.65573108      -0.00151435      -0.00070901       0.00028998
H        2.40109210       0.33748836       3.65564842       0.00181587      -0.00092864       0.00088111
H       -0.21571346       0.18837112       5.16975345      -0.00088083       0.00072364       0.00357176
H       -2.37084528       1.55904295       3.32719025      -0.00194210       0.00172605       0.00091565
H       -1.00003998       2.25597188       1.06697315      -0.00021124      -0.00216579      -0.00506248
H       -0.87712075      -2.37337885       1.09278276       0.00026309       0.00204076       0.00084346
H        2.17869583      -1.34141108       1.23391025       0.00223474      -0.00092690       0.00119132
H        1.82416332       1.85390042       1.07983774      -0.00024073       0.00133176      -0.00105350
H        0.41589572       2.70092241       3.42509327       0.00037566       0.00159445       0.00083423
H        1.85274658       1.58436700      -1.04915093      -0.00686951       0.00518932       0.00462646
H        2.74267500       0.29792919      -3.36865005       0.00181884       0.00081076      -0.00071904
H        1.08385149      -2.29815761      -3.54678701       0.00179391      -0.00136450      -0.00056092
H       -1.87372163      -1.49642368      -3.64509695      -0.00011986      -0.00245443       0.00047839
H        0.18476665       0.11615172      -5.15239707       0.00076443       0.00074479      -0.00208706
H        0.82065047       2.63015626      -3.36645708       0.00003295       0.00127685      -0.00056526
H       -0.69633478       2.27443626      -1.11567937       0.00132149      -0.00070803       0.00404916
H        2.31340292      -1.21223801      -0.98455456      -0.00000791       0.00163000      -0.00310101
H       -0.62626986      -2.51548066      -1.14185551      -0.00119261      -0.00255270       0.00177868
H       -2.53882022       0.07559122      -1.12448444       0.00019434       0.00088647       0.00121255
H       -1.99438041       1.60393230      -3.47510694      -0.00322093       0.00151522      -0.00192578
