45
Properties=species:S:1:pos:R:3:forces:R:3 charge=-1 spin=1 energy=-242.28262329101562 free_energy=-242.28262329101562 stress="-6.389849716015306e-08 9.462915784297365e-09 -5.3076032457965994e-08 9.462915784297365e-09 -9.306638304451553e-08 7.073246877098427e-08 -5.3076032457965994e-08 7.073246877098427e-08 -1.8759132558443525e-07" pbc="F F F"
C        1.41013978       0.27277060       1.55400000       0.17873850       0.10111082       0.29532626
B        1.10420354       1.04463351       3.02605052      -0.00353232       0.00295480       0.00180181
B       -0.65952934       1.15412179       3.07934368      -0.00227206       0.00050248       0.00245965
B       -1.29349198      -0.51531761       3.05511460      -0.00112323       0.00044698       0.00344950
B        0.20100041      -0.14408779       3.97125601      -0.00199021       0.00210653       0.00116307
B        1.55209035      -0.65212756       3.02544168       0.00039198       0.00184013       0.00139012
C        0.85781404      -1.22270400       1.56400000       0.00363165      -0.10457116       0.03357232
B        0.17944103       1.42567436       1.54844036      -0.00130373      -0.00242573      -0.00251617
B       -1.34525302       0.48350601       1.58289950      -0.00335062      -0.00003640      -0.00562680
B       -0.81564074      -1.23183768       1.47946891      -0.00603178      -0.00181177      -0.00326693
B        0.09130631      -1.61228164       3.01323782      -0.00279365      -0.00069597       0.00355976
C        1.14300000       0.92400000      -1.55300000       0.09679003       0.00812820      -0.18406874
B        1.61838825       0.19660142      -2.99571699       0.00082591      -0.00414937      -0.00241351
B        0.67542655      -1.29570333      -3.04182235      -0.00139835      -0.00115488      -0.00182883
B       -1.05113253      -0.83750522      -3.07439135      -0.00025617      -0.00112474      -0.00379241
B        0.14625544       0.14960694      -3.96867960      -0.00041713      -0.00244118      -0.00046965
B        0.50456331       1.55093226      -3.02788839       0.00028294       0.00029024      -0.00157408
C       -0.40000000       1.32300000      -1.56800000      -0.14365551       0.33889931      -0.22257355
B        1.34142677      -0.74300743      -1.50130700      -0.00163230      -0.00059894       0.00098506
B       -0.30897826      -1.43831187      -1.57352529      -0.00287661      -0.00666377       0.00641835
B       -1.40696893      -0.01753246      -1.52214804      -0.00050899      -0.00429302       0.00309428
B       -1.13039270       0.92570921      -3.04485773      -0.00182642      -0.00139142      -0.00280979
Co       0.00000000       0.00000000       0.00000000      -0.10178123      -0.32941628       0.07266530
H        2.37174641       0.46622933       1.06808126      -0.00107154       0.00074997       0.00562474
H        1.88154022       1.84923270       3.43772858      -0.00113156       0.00185563      -0.00229521
H       -1.20959805       2.03897031       3.66151586      -0.00166076      -0.00039911      -0.00156604
H       -2.30581092      -0.82824159       3.60556673       0.00127527      -0.00068215      -0.00029344
H        0.21389567      -0.15974075       5.16134018      -0.00038480       0.00249628      -0.00294161
H        2.62184511      -1.05829869       3.34168064       0.00139076       0.00185118       0.00054361
H        1.43604856      -1.99082251       1.04299637      -0.00365910       0.00190730       0.00610708
H        0.37095335       2.51239254       1.08298645       0.00033357      -0.00067787       0.00268097
H       -2.40006469       0.87290714       1.17437717       0.00286770      -0.00195320       0.00536451
H       -1.38715916      -2.17992838       1.02978801       0.00311548       0.00299674       0.00149290
H        0.10650945      -2.73975547       3.39986486       0.00164310       0.00099751       0.00109686
H        1.85001011       1.59508694      -1.05529433      -0.00590648      -0.00110939       0.00177512
H        2.73436149       0.34426322      -3.38717501       0.00084224      -0.00189568       0.00031799
H        1.08753358      -2.26796946      -3.59769545      -0.00168958       0.00022866       0.00270232
H       -1.87690131      -1.48450450      -3.64447917      -0.00059502       0.00154399       0.00134135
H        0.16985800       0.15642916      -5.15863719      -0.00029836      -0.00213851       0.00369862
H        0.79755138       2.65599116      -3.34758747       0.00147744       0.00080743      -0.00209641
H       -0.69907098       2.25702726      -1.08106626      -0.00227077      -0.00368145      -0.00350803
H        2.31708310      -1.21187007      -0.99230139       0.00005656      -0.00223198      -0.00650105
H       -0.60825150      -2.51781442      -1.15637359      -0.00063759       0.00526091      -0.00669450
H       -2.52144680       0.07875834      -1.09923779       0.00199139      -0.00259148      -0.00161592
H       -2.02033792       1.60290923      -3.45753087       0.00040148       0.00116052      -0.00017872
