45
Properties=species:S:1:pos:R:3:forces:R:3 charge=-1 spin=1 energy=-54314.34066488045 free_energy=-54314.34066488045 stress="1.3213305473327637 -0.10027556866407394 0.3496921956539154 -0.10027556866407394 0.4755081534385681 -0.46972915530204773 0.3496921956539154 -0.46972915530204773 0.839810848236084" pbc="F F F"
C        1.08483157       0.94129616       1.55400000      -0.04114647      -0.16258223       0.03402890
B        0.43056593       1.47946197       3.01728034      -0.00202007      -0.00251666       0.00154425
B       -1.15015616       0.68854267       3.10348412      -0.00070543      -0.00141539      -0.00193223
B       -0.87454403      -1.05913377       3.08488240       0.00069508      -0.00199654       0.00255171
B        0.24423646       0.00875737       3.98382460      -0.00087825      -0.00394534      -0.00151547
B        1.68314360       0.23415269       2.96827927      -0.00113062      -0.00157944       0.00002220
C        1.35424075      -0.62998570       1.56400000      -0.50185043       0.40931928      -0.24469860
B       -0.56948669       1.32378329       1.55783214      -0.00350856      -0.00209024      -0.00206528
B       -1.41403696      -0.24843320       1.58443335      -0.00007877      -0.00018050      -0.00262601
B       -0.11462646      -1.47557679       1.51565739       0.00377177      -0.00128840      -0.00301462
B        0.86339315      -1.33454702       3.01153594       0.00328627      -0.00005131      -0.00192256
C        1.14300000       0.92400000      -1.55300000      -0.44847772      -0.19293378       0.02063271
B        1.62159777       0.19591258      -2.99692117      -0.00310338      -0.00136124      -0.00139862
B        0.66299964      -1.28830444      -3.08112283      -0.00189536      -0.00058083       0.00167476
B       -1.04587435      -0.83361093      -3.10599312      -0.00245703       0.00120587      -0.00267035
B        0.15313381       0.16103346      -3.98650359      -0.00441991      -0.00168125       0.00156840
B        0.51394328       1.57202503      -2.97334724      -0.00177130      -0.00102661       0.00054843
C       -0.40000000       1.32300000      -1.56800000       0.18249419       0.08996671       0.19735162
B        1.32024031      -0.75800218      -1.52528658      -0.00313506      -0.00408683       0.00321305
B       -0.32783427      -1.43570720      -1.58167075      -0.00173209       0.00042103       0.00331435
B       -1.41880715      -0.02752934      -1.55141257      -0.00087990       0.00271545       0.00342236
B       -1.13170208       0.92292105      -3.03847033       0.00066255       0.00360788       0.00147056
Co       0.00000000       0.00000000       0.00000000       0.86209434      -0.09724928      -0.01224862
H        1.83535100       1.55868103       1.08711981       0.00004013      -0.00002358      -0.00232257
H        0.72908871       2.55595764       3.41028482      -0.00318761      -0.00120831      -0.00090948
H       -2.05442314       1.20300633       3.67065900      -0.00227828      -0.00509958      -0.00188751
H       -1.57689469      -1.83048589       3.64605885      -0.00160984      -0.00619042      -0.00226188
H        0.33363206       0.01610113       5.16636426      -0.00221397      -0.00209175      -0.00262211
H        2.81038066       0.41307492       3.27766520      -0.00268928       0.00089653      -0.00060801
H        2.23597498      -0.98717731       1.06246375       0.00094387       0.00052566      -0.00153357
H       -0.93729194       2.36806640       1.12074268      -0.00315752      -0.00533796      -0.00120743
H       -2.53760983      -0.43067567       1.25312144       0.00118484      -0.00490581      -0.00662515
H       -0.15563850      -2.57878581       1.09319050       0.00642168      -0.00212868      -0.00717541
H        1.45843388      -2.27863251       3.40485679       0.00095307      -0.00009593      -0.00187446
H        1.81933293       1.60942165      -1.06970412       0.00011332      -0.00027935       0.00257012
H        2.73082307       0.36859392      -3.37420941      -0.00155506      -0.00348477       0.00117667
H        1.09164765      -2.24980807      -3.62504738      -0.00542631      -0.00228683       0.00204507
H       -1.87359391      -1.45485132      -3.68208775      -0.00663487      -0.00091877       0.00232525
H        0.19003856       0.24195385      -5.16910275      -0.00244357      -0.00215361       0.00296791
H        0.79747572       2.67833948      -3.27971089       0.00069065      -0.00299521       0.00093054
H       -0.67416981       2.25293120      -1.09882121       0.00082198       0.00053256       0.00142734
H        2.30562344      -1.24286837      -1.06829079      -0.00622732      -0.00377206       0.00196310
H       -0.62678918      -2.53159744      -1.24502201      -0.00552640       0.00258772       0.00750278
H       -2.52779248       0.06103923      -1.15047599      -0.00169187       0.00650808       0.00682527
H       -1.99332354       1.62353191      -3.44663330      -0.00034158       0.00125166       0.00204290
