45
Properties=species:S:1:pos:R:3:forces:R:3 charge=-1 spin=1 energy=-54314.60328389901 free_energy=-54314.60328389901 stress="1.1960550546646118 0.28544193506240845 -1.3555790185928345 0.28544193506240845 0.5070093870162964 -0.44231659173965454 -1.3555790185928345 -0.44231659173965454 2.0667097568511963" pbc="F F F"
C       -1.11702148      -0.90286267       1.55400000       0.10627564       0.17194428      -0.30795962
B       -0.46888069      -1.44897954       3.00717132       0.00685349       0.00500728      -0.00471693
B        1.13002416      -0.69658134       3.10164376      -0.00280351      -0.01097722      -0.00559494
B        0.89916648       1.05942826       3.09939889       0.00805148      -0.00462314       0.00213167
B       -0.25002435       0.01388476       3.98371594      -0.00030284       0.00836012      -0.00533858
B       -1.69382051      -0.17339734       2.96310200       0.00819230       0.00413064      -0.00171306
C       -1.33142960       0.67686425       1.56400000       0.27654418      -0.25226280      -0.30252218
B        0.53768135      -1.31967004       1.53508024      -0.00980036      -0.00680647       0.00239862
B        1.41282632       0.22960096       1.59563169      -0.01063636      -0.00671648       0.00487825
B        0.15208796       1.48452483       1.54067187       0.01128585       0.00137661       0.01085688
B       -0.83478456       1.37887970       3.01656238       0.00488568       0.00685804      -0.00839525
C        1.14300000       0.92400000      -1.55300000      -0.44588748      -0.28754580       0.42535272
B        1.60344183       0.15571756      -2.96962347      -0.00507412      -0.00877433       0.00909084
B        0.63094794      -1.32000475      -3.03517942       0.01675761      -0.00228744       0.01298287
B       -1.07556470      -0.84913782      -3.08469462       0.00971851      -0.01189244      -0.00423194
B        0.13741626       0.12155162      -3.96719431      -0.00298669      -0.00246744       0.00525011
B        0.51012162       1.54836516      -2.97524622      -0.00296584      -0.00796847       0.00149130
C       -0.40000000       1.32300000      -1.56800000       0.06349909       0.16044345       0.01413420
B        1.29696165      -0.77274734      -1.46428289       0.01054397       0.00612560       0.00179874
B       -0.35657979      -1.43303627      -1.54682714       0.01122242       0.00951463      -0.00006720
B       -1.43124890      -0.01611477      -1.55836596       0.00224658      -0.01311916      -0.01500831
B       -1.14378045       0.91519190      -3.03779684      -0.00440961      -0.00315595       0.00261327
Co       0.00000000       0.00000000       0.00000000      -0.08738190       0.26003614       0.15429461
H       -1.86540617      -1.49022922       1.04719297       0.00680461      -0.00280872      -0.00537184
H       -0.78426310      -2.51908893       3.40247676       0.01152413       0.01250094      -0.00488078
H        2.01651961      -1.23916490       3.67050437       0.00349132       0.00898117      -0.00430594
H        1.62375434       1.80790659       3.66512641      -0.00138197       0.00900149      -0.00519015
H       -0.34240207      -0.00085935       5.16623825       0.00575340       0.00667736      -0.00671256
H       -2.82441809      -0.32179791       3.27581117       0.00990213       0.00208097      -0.00621147
H       -2.20440745       1.05151422       1.05335559       0.01231193      -0.00299751       0.00687123
H        0.89337586      -2.37083313       1.11994971      -0.01104028      -0.00079122      -0.01132402
H        2.53612160       0.38834615       1.23837341      -0.00278839      -0.00614981      -0.02537389
H        0.22612501       2.57227835       1.06050503       0.00514719      -0.01018829       0.01544621
H       -1.41320524       2.33261798       3.41432702      -0.00274851       0.00535582      -0.00698443
H        1.81226015       1.59180736      -1.03643529      -0.00046100      -0.00751762       0.00462610
H        2.71291623       0.30098708      -3.35580355      -0.01406523      -0.01004037       0.01219499
H        1.05391547      -2.28957347      -3.56879686      -0.00403839      -0.00321990       0.00826865
H       -1.90644638      -1.47447984      -3.65376582      -0.00428833       0.00098001       0.00228022
H        0.18247745       0.18252378      -5.15095458      -0.00028623      -0.00705692       0.00672108
H        0.80281295       2.64469483      -3.30770957      -0.00010773      -0.00924413       0.00496588
H       -0.66102611       2.26032997      -1.10148904       0.00138450      -0.01111328      -0.01024822
H        2.27253866      -1.26853101      -1.01050178       0.00546498       0.01115199       0.01939055
H       -0.67174043      -2.51433218      -1.16514165       0.00587496       0.00432054       0.02846987
H       -2.52822749       0.08492717      -1.10474021       0.01334307      -0.00908158      -0.01500342
H       -1.99562709       1.62076392      -3.46071621      -0.00362453       0.00395928       0.00064584
