45
Properties=species:S:1:pos:R:3:forces:R:3 charge=-1 spin=1 energy=-54314.62531949776 free_energy=-54314.62531949776 stress="0.022787440568208694 -0.075797438621521 -0.06296682357788086 -0.075797438621521 -0.10378465801477432 -0.1296122819185257 -0.06296682357788086 -0.1296122819185257 0.7519586682319641" pbc="F F F"
C        0.27958000      -1.43599840       1.45878826      -0.00219982      -0.00109071       0.01146045
B        1.05319437      -1.21244459       2.95259648       0.00398332      -0.00042027      -0.01400026
B        1.19444485       0.54220157       3.12577300       0.00129012       0.00048630       0.00012050
B       -0.44089337       1.21999357       3.12313698       0.00004945      -0.00223808      -0.00736168
B       -0.12407655      -0.33529161       3.94400140      -0.00505583       0.01309738      -0.00183812
B       -0.65827338      -1.62985370       2.85160026      -0.00992473      -0.00076177      -0.00792913
C       -1.19407051      -0.83464010       1.46205286      -0.00648187       0.00926908       0.00455634
B        1.45735421      -0.21809727       1.53692136      -0.04139584      -0.00825782       0.00445545
B        0.55309042       1.29236024       1.63600000      -0.09909461       0.20347962      -0.02605597
B       -1.17255177       0.86053461       1.54155140      -0.01802400       0.00733993      -0.01030686
B       -1.57997287      -0.12227597       2.95805329      -0.00507997       0.00141108      -0.02174619
C        1.08055033       0.96794967      -1.45460950       0.00168296       0.00024663      -0.01132211
B        1.60866996       0.30368678      -2.92502574       0.00344198      -0.00240597       0.01514623
B        0.71317463      -1.21410594      -3.08635092       0.00217197       0.00038834       0.00207133
B       -1.01290677      -0.82205665      -3.12500029      -0.00022799       0.00273551       0.00728255
B        0.16088661       0.24763384      -3.94432669      -0.01002639      -0.00793966       0.00260186
B        0.45206542       1.63567716      -2.87530808      -0.00609079       0.00649392       0.00656839
C       -0.47149514       1.32861178      -1.49608374      -0.00956948      -0.00276008      -0.00322438
B        1.33472789      -0.71246205      -1.49459745      -0.03027239       0.03113547      -0.00381021
B       -0.27500000      -1.43300000      -1.61500000      -0.13357154       0.11107126       0.04314051
B       -1.42945336      -0.07368406      -1.56440658      -0.01849853       0.00295008       0.00825702
B       -1.16880133       0.93455491      -2.99739494      -0.00514384       0.00192805       0.02026540
Co       0.00000000       0.00000000       0.00000000       0.35842714      -0.36262944      -0.02311071
H        0.42240663      -2.36098343       0.92558418       0.00823926       0.01046604      -0.00081589
H        1.81158725      -2.04062378       3.32593174      -0.00081166       0.00125339      -0.01071041
H        2.10035258       1.01827179       3.72265931       0.00087095       0.00451329       0.00024590
H       -0.74081299       2.19545219       3.72694121       0.00068171      -0.00238396      -0.01160999
H       -0.18077095      -0.47443064       5.12025466      -0.00570190      -0.00643016      -0.00129650
H       -1.10035149      -2.69458006       3.11001546      -0.00221527      -0.00556853      -0.01811398
H       -1.95347425      -1.38652486       0.93260073       0.00450080       0.00050121       0.00456670
H        2.54535806      -0.39737434       1.10638558       0.01304710       0.00602001       0.02243953
H        0.98362527       2.35132055       1.29411925      -0.00101084       0.00605823       0.01348981
H       -2.06935387       1.49061771       1.08479685       0.00375699      -0.00213851       0.00014951
H       -2.69969704      -0.17404749       3.33940548       0.00247474       0.00209313      -0.02071459
H        1.72343714       1.65252661      -0.92658085      -0.00087624      -0.01302941       0.00316123
H        2.71333025       0.53265832      -3.28255984      -0.00303835      -0.00015848       0.01104176
H        1.19202480      -2.13581359      -3.65655187      -0.00302602      -0.00280565      -0.00004866
H       -1.81096962      -1.45415145      -3.73295790      -0.00043571       0.00209321       0.01143963
H        0.21831765       0.37030915      -5.12241238      -0.00199478       0.00942078       0.00254062
H        0.71190041       2.75374537      -3.15500624       0.00136818       0.00716319       0.01835257
H       -0.78415809       2.23022569      -0.99508695       0.00346740      -0.00292179      -0.00075917
H        2.31765662      -1.18537055      -1.03462600       0.00814065      -0.01237206      -0.02191237
H       -0.54303787      -2.53562384      -1.24858019      -0.00482040      -0.00579307      -0.01676032
H       -2.53371072      -0.06048605      -1.12795819       0.00628643       0.00226650      -0.00245482
H       -2.04509770       1.61489405      -3.41107609       0.00070775      -0.00177613       0.02254881
