45
Properties=species:S:1:pos:R:3:forces:R:3 charge=-1 spin=1 energy=-54314.45453359383 free_energy=-54314.45453359383 stress="1.5740221738815308 -0.04171663522720337 0.5334522128105164 -0.04171663522720337 0.5658753514289856 -0.44178906083106995 0.5334522128105164 -0.44178906083106995 2.0421106815338135" pbc="F F F"
C        0.70621439       1.25066352       1.55400000      -0.01781549      -0.15981559      -0.02691296
B       -0.09146032       1.53275714       3.01530022      -0.00108901       0.00016204       0.00186910
B       -1.31281193       0.25529650       3.09790135      -0.01090832      -0.00452937      -0.01046717
B       -0.46447573      -1.29803459       3.07489778      -0.01050891      -0.00489027       0.00738221
B        0.23025895       0.08238351       3.97939683      -0.00603383      -0.00295519      -0.01504508
B        1.51001226       0.78320961       2.96782909      -0.00421324      -0.00243438      -0.01186655
C        1.48710229      -0.13920054       1.56400000      -0.54300195       0.24607292      -0.35818216
B       -0.98350099       1.05397538       1.55084210      -0.01514101      -0.00484736       0.00547918
B       -1.24765273      -0.71051311       1.57305809       0.01685530       0.00024947      -0.00980915
B        0.38775269      -1.43290606       1.50581162       0.02325123       0.03083158      -0.00691887
B        1.26526781      -0.97237598       3.00467845      -0.00586362      -0.00596648      -0.00159190
C        1.14300000       0.92400000      -1.55300000      -0.41722471      -0.23119897       0.12620702
B        1.62022044       0.18060697      -2.98551506      -0.00114995      -0.00040322      -0.00202996
B        0.66300613      -1.30509500      -3.05312718      -0.00331861      -0.01085417       0.00593005
B       -1.04645680      -0.85050338      -3.08111915      -0.00894162      -0.00456691      -0.00792966
B        0.15097033       0.13688417      -3.97376021      -0.00292736      -0.00750130       0.01645750
B        0.51282733       1.56005336      -2.97694712      -0.00518953      -0.00498620       0.01175467
C       -0.40000000       1.32300000      -1.56800000       0.18703640       0.05102463       0.20628321
B        1.32432194      -0.76292681      -1.50094889      -0.00576495      -0.01789404      -0.00554440
B       -0.32583529      -1.44167027      -1.54856599      -0.01149196       0.02234784      -0.00034446
B       -1.42125386      -0.03255295      -1.53575242       0.02437966       0.02555108       0.01917028
B       -1.13347020       0.90845735      -3.03225363      -0.00645685      -0.00654954       0.00704602
Co       0.00000000       0.00000000       0.00000000       0.90536308       0.14573891       0.04746902
H        1.19877768       2.08842809       1.08366388       0.01148865      -0.01334869      -0.01136963
H       -0.17251222       2.64466022       3.41487442      -0.00527582       0.00151009      -0.00585522
H       -2.33461527       0.43272411       3.67134937      -0.00357266      -0.00837651      -0.01468392
H       -0.86464702      -2.25968473       3.63831547      -0.00989954      -0.01920516      -0.00565098
H        0.31306107       0.11698417       5.16276179      -0.01237252      -0.00719990      -0.02334909
H        2.51236815       1.33017904       3.27929296      -0.01577668      -0.00770043      -0.00526487
H        2.43570971      -0.18304941       1.05510561       0.00398106       0.00531726      -0.00738183
H       -1.68296615       1.90971955       1.10687777       0.02946177      -0.01966114      -0.00609685
H       -2.24261512      -1.25889536       1.23256626      -0.00267062      -0.00183683      -0.02482995
H        0.72396362      -2.48044992       1.06843276      -0.00373705       0.01340442      -0.00624811
H        2.14315448      -1.66210439       3.39878386      -0.00591464       0.00523873      -0.01007914
H        1.82469443       1.60571968      -1.06865310      -0.01582007       0.00795360       0.01049598
H        2.72810292       0.35081517      -3.36797536       0.00271948      -0.00529342       0.00282490
H        1.09088501      -2.26867522      -3.59410870      -0.00953430      -0.00704549       0.00967337
H       -1.87209521      -1.47498842      -3.65622287      -0.01619519      -0.01040599       0.00760508
H        0.18780520       0.20673381      -5.15793875      -0.00775253      -0.01054261       0.02527849
H        0.79668002       2.66354096      -3.29711185      -0.00469805      -0.01641782       0.00783603
H       -0.67862185       2.25456642      -1.10122385       0.00651670       0.00376375       0.00949958
H        2.30457208      -1.24526366      -1.02732889      -0.03358922       0.03021832       0.00113741
H       -0.62460955      -2.53256293      -1.19231141      -0.00036177       0.00707835       0.02446197
H       -2.52721256       0.06136090      -1.12291556       0.00830750       0.00319453       0.00989818
H       -1.99605982       1.60236893      -3.45177758       0.00485035      -0.00323039       0.01369293
