45
Properties=species:S:1:pos:R:3:forces:R:3 charge=-1 spin=1 energy=-242.30154418945312 free_energy=-242.30154418945312 stress="-5.7977089795713255e-08 -6.012719655501542e-09 3.9638937465724666e-08 -6.012719655501542e-09 -9.221948715776307e-08 1.0520894022647553e-07 3.9638937465724666e-08 1.0520894022647553e-07 -1.682371362221602e-07" pbc="F F F"
C       -0.90489618      -1.11537478       1.55400000      -0.08915794      -0.23890723       0.19011198
B       -0.17614058      -1.51758459       3.02912351       0.00140378       0.00226177       0.00302063
B        1.23919471      -0.45634880       3.08917099      -0.00079647      -0.00088065      -0.00507732
B        0.64430939       1.22564521       3.08086531       0.00165187       0.00074890       0.00086061
B       -0.25854417      -0.04074128       3.97973936      -0.00377024      -0.00417180      -0.00040291
B       -1.61298862      -0.51967314       3.02112486       0.00281203      -0.00059209       0.00359765
C       -1.44306266       0.38525337       1.56400000      -0.05639789       0.05202642       0.08744837
B        0.77236370      -1.18524266       1.52863023       0.00716474       0.00496975       0.00291555
B        1.32877963       0.52358455       1.60794841       0.00005007       0.00128846       0.00044252
B       -0.17764597       1.48658897       1.53060059      -0.00230351       0.00034514       0.00169125
B       -1.12007757       1.16234609       3.02376817      -0.00158119      -0.00148410       0.00023978
C        1.14300000       0.92400000      -1.55300000       0.14707991       0.00757089      -0.07057261
B        1.62318078       0.17920118      -2.98872796      -0.00202193      -0.00105096      -0.00251133
B        0.66999484      -1.31082114      -3.02015893      -0.00004467       0.00047323       0.00549769
B       -1.05304279      -0.84713208      -3.07237594       0.00086759      -0.00191466      -0.00068751
B        0.16209527       0.12718918      -3.96377456       0.00488088       0.00352211       0.00005072
B        0.52228592       1.53641028      -3.03476757       0.00042326      -0.00231344      -0.00279201
C       -0.40000000       1.32300000      -1.56800000      -0.13939267       0.24618810      -0.32598984
B        1.32015026      -0.74053590      -1.45635285      -0.00362989      -0.00501518      -0.00139423
B       -0.33797532      -1.43512455      -1.56196461      -0.00069201      -0.00065920      -0.00126629
B       -1.42602520      -0.01328434      -1.55734743       0.00002882       0.00183497      -0.00028786
B       -1.11967586       0.91871645      -3.04950712       0.00269331       0.00464199       0.00050199
Co       0.00000000       0.00000000       0.00000000       0.14861993      -0.08545641       0.11257202
H       -1.49474243      -1.88181347       1.04193791       0.00174793       0.00367525      -0.00033055
H       -0.23876992      -2.64132200       3.42234676       0.00105481       0.00181070      -0.00036207
H        2.23402850      -0.78864665       3.65986946      -0.00278661       0.00339335       0.00007269
H        1.21214588       2.10638345       3.65131963      -0.00091749       0.00435859       0.00320181
H       -0.28337283      -0.04721494       5.16982871      -0.00132942       0.00071511      -0.00185426
H       -2.69364429      -0.90395380       3.32869342       0.00143242       0.00079204      -0.00269526
H       -2.38508793       0.59825129       1.05061020      -0.00021796      -0.00259501       0.00912303
H        1.33495652      -2.15014677       1.10211671      -0.00078836      -0.00052933      -0.00118500
H        2.38470678       0.90016864       1.18861955      -0.00329520       0.00143047       0.00108307
H       -0.34882617       2.57626715       1.06883764      -0.00203218       0.00283089      -0.00491098
H       -1.87138503       1.99767229       3.42178557      -0.00305545       0.00045677      -0.00021695
H        1.84814539       1.58069999      -1.03526434      -0.00051321      -0.00483751       0.00027247
H        2.74675497       0.30637456      -3.36619388      -0.00180060      -0.00110934       0.00125018
H        1.09071315      -2.29386920      -3.55134473      -0.00359240       0.00259314       0.00006634
H       -1.87075081      -1.49534871      -3.65110012      -0.00333953       0.00095525      -0.00298169
H        0.19024438       0.12162833      -5.15380455       0.00051906       0.00116161       0.00117375
H        0.82128699       2.63738051      -3.36398509      -0.00013851      -0.00232807       0.00221580
H       -0.69686020       2.26824680      -1.10384846       0.00916689      -0.00395449       0.00020126
H        2.30571792      -1.21530604      -0.97601569      -0.00040982       0.00038093       0.00094403
H       -0.63825486      -2.50413316      -1.11550454      -0.00210888       0.00391802      -0.00229520
H       -2.53768767       0.08747126      -1.12658791      -0.00511289       0.00068232       0.00160784
H       -1.99530613       1.60423530      -3.47834173      -0.00037019       0.00277257      -0.00234897
