45
Properties=species:S:1:pos:R:3:forces:R:3 charge=-1 spin=1 energy=-242.29849243164062 free_energy=-242.29849243164062 stress="-6.56998082604332e-08 2.6384391560441145e-08 -3.112479163291937e-08 2.6384391560441145e-08 -8.209400448322413e-08 1.0258608540425485e-07 -3.112479163291937e-08 1.0258608540425485e-07 -1.4281357607615064e-07" pbc="F F F"
C        0.94129616      -1.08483157       1.55400000       0.18645155      -0.07595700       0.24436152
B        1.46133683      -0.43950080       3.03003693      -0.00058938       0.00155494       0.00139045
B        0.66652692       1.14244105       3.09126076       0.00070894      -0.00079539      -0.00148114
B       -1.09193804       0.84959455       3.07468222      -0.00002438       0.00092390      -0.00129950
B       -0.01251135      -0.26281603       3.97961938       0.00101904       0.00048453      -0.00020462
B        0.22332993      -1.68067737       3.02381367      -0.00099187       0.00067225      -0.00104121
C       -0.62998570      -1.35424075       1.56400000      -0.07467996      -0.06427172       0.00798893
B        1.31376261       0.56262152       1.55245061       0.00047824       0.00099119      -0.00133424
B       -0.26720292       1.40169693       1.60185332      -0.00062945      -0.00035390      -0.00072640
B       -1.48128852       0.08581739       1.50625480      -0.00086278      -0.00202981       0.00140412
B       -1.34093861      -0.90078193       3.02424047       0.00040021      -0.00197912      -0.00310285
C        1.14300000       0.92400000      -1.55300000       0.12514903      -0.02379337      -0.10156885
B        1.62585723       0.19271142      -2.99322578      -0.00051672       0.00179363       0.00016811
B        0.67618548      -1.30021651      -3.03845636       0.00170141       0.00166669      -0.00017619
B       -1.04473609      -0.83599861      -3.08599451      -0.00150786       0.00037741       0.00016356
B        0.16365063       0.14839463      -3.97162174       0.00167107       0.00347652      -0.00113524
B        0.52023342       1.55082185      -3.03133869      -0.00011868       0.00095272       0.00067400
C       -0.40000000       1.32300000      -1.56800000      -0.13613319       0.28531852      -0.21840990
B        1.33043099      -0.74792478      -1.49160534       0.00157353       0.00066915       0.00043063
B       -0.32205825      -1.43442472      -1.57967812      -0.00021687      -0.00024834      -0.00025974
B       -1.41330000      -0.01470247      -1.54981061       0.00008634       0.00263700      -0.00199868
B       -1.11568356       0.93105784      -3.05647099       0.00067108       0.00425546       0.00379409
Co       0.00000000       0.00000000       0.00000000      -0.10650247      -0.14921540       0.08772489
H        1.59153727      -1.80553775       1.05037293       0.00051692       0.00510606      -0.00271276
H        2.55263297      -0.70420998       3.43002992       0.00052729       0.00097651      -0.00075400
H        1.15908979       2.06128136       3.67223656      -0.00091040       0.00095375      -0.00072023
H       -1.86829986       1.56124351       3.63633736      -0.00108229       0.00120604      -0.00001081
H       -0.01387471      -0.28805110       5.16976984       0.00102854       0.00140005       0.00128630
H        0.41114057      -2.81247520       3.32985651       0.00060635       0.00152224       0.00046687
H       -1.00630139      -2.23630334       1.03894642       0.00498790       0.00248041      -0.00162663
H        2.35371741       0.94398406       1.10115998      -0.00041339      -0.00136396       0.00037456
H       -0.46197628       2.50635961       1.18224049      -0.00068746       0.00000708      -0.00152944
H       -2.59477308       0.10398123       1.07697979       0.00039965      -0.00034380       0.00005022
H       -2.30289437      -1.48806875       3.41271541       0.00050226       0.00051655       0.00160128
H        1.84671893       1.57963662      -1.03272633       0.00072052       0.00062606      -0.00112675
H        2.74743658       0.33037160      -3.37226375      -0.00042865      -0.00021507       0.00033575
H        1.09206197      -2.27664102      -3.58377506      -0.00113364      -0.00028761      -0.00260668
H       -1.86726443      -1.47932422      -3.66387014      -0.00245237       0.00039330      -0.00272585
H        0.19367148       0.15059319      -5.16157999       0.00098947       0.00128516      -0.00255267
H        0.81783706       2.65534326      -3.34929833       0.00085256      -0.00030306       0.00108190
H       -0.70091990       2.25493290      -1.07934006       0.00050888       0.00089080      -0.00186402
H        2.30962851      -1.21954522      -0.99478678      -0.00168615      -0.00104171      -0.00053242
H       -0.63114225      -2.50668263      -1.14722391      -0.00195940      -0.00198412       0.00049934
H       -2.53731822       0.08592480      -1.15962190       0.00127989      -0.00029122      -0.00113944
H       -1.99811194       1.61414308      -3.47558494       0.00069655       0.00133643      -0.00115584
