45
Properties=species:S:1:pos:R:3:forces:R:3 charge=-1 spin=1 energy=-242.29310607910156 free_energy=-242.29310607910156 stress="-7.423768977332657e-08 1.748843203586148e-08 -5.000719482950444e-08 1.748843203586148e-08 -8.417250541015164e-08 9.361738051438806e-08 -5.000719482950444e-08 9.361738051438806e-08 -1.6490790244461095e-07" pbc="F F F"
C        1.37313756      -0.42117838       1.55400000       0.20753224      -0.00921556       0.32596341
B        1.46583828       0.39890472       3.03428923       0.00141270      -0.00000685      -0.00315353
B       -0.03967558       1.32503312       3.08892368       0.00145528       0.00164255      -0.00028443
B       -1.38245448       0.15104125       3.06080357      -0.00071511       0.00000855       0.00007250
B        0.11374064      -0.22737659       3.97597378      -0.00072381      -0.00053719      -0.00020774
B        1.06672011      -1.30844138       3.02633979      -0.00087791      -0.00080138      -0.00201347
C        0.18338009      -1.48230285       1.56400000      -0.07771721      -0.06892243       0.00511533
B        0.82933062       1.17265641       1.55413941       0.00391150       0.00098220       0.00112398
B       -0.95677718       1.06112307       1.59319174       0.00182632       0.00148538      -0.00087921
B       -1.29904872      -0.70104730       1.49075855       0.00140800       0.00109059      -0.00794138
B       -0.67340812      -1.46940101       3.01469785      -0.00045129      -0.00004620      -0.00257721
C        1.14300000       0.92400000      -1.55300000       0.10831903       0.03084099      -0.18195236
B        1.61860777       0.20195119      -3.00296684       0.00124405       0.00134046       0.00411624
B        0.67528356      -1.29209518      -3.05161944       0.00254299      -0.00103639       0.00012143
B       -1.04800518      -0.83585286      -3.08241061      -0.00111009       0.00033621       0.00022370
B        0.15024989       0.15708994      -3.97400652      -0.00100216       0.00088555       0.00037007
B        0.50800342       1.55604951      -3.02907298      -0.00144767       0.00068323       0.00315486
C       -0.40000000       1.32300000      -1.56800000      -0.17479196       0.28802872      -0.21646206
B        1.34064131      -0.74178368      -1.50651199       0.00457248       0.00067144      -0.00315654
B       -0.30453587      -1.43869078      -1.58415124       0.00230747       0.00059691      -0.00094987
B       -1.40551444      -0.02135037      -1.53727589       0.00174782       0.00008535       0.00972286
B       -1.12619212       0.93044755      -3.04844093      -0.00109051       0.00081028       0.00332682
Co       0.00000000       0.00000000       0.00000000      -0.07956637      -0.24156676       0.06682218
H        2.31295877      -0.70052701       1.07075042       0.00386029      -0.00357680      -0.00065131
H        2.53072228       0.74625300       3.44236997      -0.00110628      -0.00147504       0.00084031
H       -0.11083632       2.36444491       3.67102932       0.00154892       0.00035325       0.00059961
H       -2.42250052       0.34550540       3.61396605      -0.00041708       0.00221180      -0.00012366
H        0.11848226      -0.24980084       5.16609292      -0.00140568      -0.00002439       0.00023490
H        1.82282403      -2.16894756       3.33886068      -0.00202185      -0.00038323       0.00058335
H        0.32510115      -2.42867528       1.03477085      -0.00002621      -0.00180779       0.00765488
H        1.52526946       2.04534982       1.12262976       0.00193690      -0.00193716      -0.00843709
H       -1.68996972       1.90790131       1.17054817       0.00357471       0.00391348      -0.00125032
H       -2.25117712      -1.26058155       1.03381312       0.00081377       0.00376675      -0.00611848
H       -1.18500704      -2.47467611       3.40067432      -0.00236551       0.00145009      -0.00145012
H        1.84712407       1.59175123      -1.04882256      -0.00081387       0.00543360       0.00099672
H        2.73645995       0.34763987      -3.39004799      -0.00188929       0.00080827      -0.00121388
H        1.08747856      -2.26452400      -3.60674480       0.00145300      -0.00029673      -0.00075197
H       -1.87500186      -1.47759900      -3.65647370       0.00053906      -0.00256347       0.00106021
H        0.17367290       0.16624382      -5.16401746      -0.00166749      -0.00065399      -0.00037564
H        0.80315160       2.66193087      -3.34485530      -0.00203180      -0.00085682      -0.00034684
H       -0.70666354       2.25253797      -1.07720884      -0.00230921      -0.00303314       0.00156523
H        2.33522719      -1.21244094      -1.03939624       0.00169877       0.00022205       0.00296607
H       -0.58914626      -2.51327535      -1.14252842       0.00126694      -0.00265186      -0.00306713
H       -2.52257694       0.06340726      -1.11882104       0.00264956      -0.00388208       0.00585099
H       -2.01335124       1.61215121      -3.46004309      -0.00207302      -0.00237244       0.00087842
