45
Properties=species:S:1:pos:R:3:forces:R:3 charge=-1 spin=1 energy=-54314.564768808064 free_energy=-54314.564768808064 stress="0.8972651958465576 0.625245213508606 -0.9087849259376526 0.625245213508606 0.9218994975090027 -1.4061908721923828 -0.9087849259376526 -1.4061908721923828 2.182499885559082" pbc="F F F"
C        0.42825745      -1.37094623       1.55400000      -0.05783886       0.25831705      -0.19477256
B        1.17236476      -0.96958750       3.01928756      -0.00773791      -0.00375612       0.01141905
B        1.06242756       0.79585983       3.11646382       0.00299770      -0.00049396      -0.00041272
B       -0.65328763       1.23194021       3.10052336      -0.00445370      -0.00211323       0.00475580
B       -0.11102659      -0.22407390       3.98837445      -0.00555003       0.00123242      -0.00444036
B       -0.46388923      -1.63576503       2.96300417       0.00217123       0.00379004       0.00515887
C       -1.11946439      -0.98876159       1.56400000       0.29933971       0.29407120      -0.48216754
B        1.42332354       0.01079009       1.56243849       0.02634223      -0.01070548      -0.03763006
B        0.30991323       1.39611246       1.60643293       0.00775064      -0.00891637       0.00411744
B       -1.32490861       0.69508199       1.53553947       0.02401946      -0.00706032       0.03280241
B       -1.58939088      -0.26334348       3.01222220      -0.00274198       0.00154542      -0.01493435
C        1.14300000       0.92400000      -1.55300000      -0.39558709      -0.35902989       0.41916582
B        1.60848167       0.15789023      -2.97866874      -0.00260105       0.00796977      -0.01413206
B        0.63935560      -1.32149646      -3.05145618       0.00835482       0.00056527      -0.00118392
B       -1.06869977      -0.85563163      -3.09304883       0.00430525       0.00236711      -0.01379231
B        0.14100021       0.12094676      -3.97447512       0.00139933       0.00250200       0.00250160
B        0.51100799       1.54653005      -2.97573927       0.00251362      -0.00300296      -0.00418317
C       -0.40000000       1.32300000      -1.56800000      -0.03013632       0.06913883       0.20441993
B        1.30266110      -0.76937478      -1.49134387       0.02689810      -0.00701592       0.03961150
B       -0.34707931      -1.43221613      -1.56581332       0.01550756       0.00231800       0.00239111
B       -1.43224401      -0.02291670      -1.56316921       0.03009330      -0.01154003      -0.02882469
B       -1.14089406       0.90929159      -3.04019274       0.00294944       0.00482717       0.00993954
Co       0.00000000       0.00000000       0.00000000       0.15789074      -0.29732826       0.08377125
H        0.70023526      -2.28405157       1.05036006       0.00035178       0.00945250      -0.00248355
H        2.04699664      -1.65869311       3.41947477      -0.00100504       0.00084015       0.00171516
H        1.89506886       1.41934937       3.68365414       0.00085027       0.00587906       0.01028875
H       -1.08862058       2.17931038       3.66527432      -0.00141597      -0.00257582      -0.00535002
H       -0.13880970      -0.31564955       5.17089707      -0.00418680       0.00070163      -0.01007362
H       -0.74432934      -2.74058779       3.27515565       0.00062625       0.00815474      -0.00352887
H       -1.78942985      -1.65266410       1.04256336       0.00189556       0.00171524      -0.00526396
H        2.53337310      -0.04225433       1.14194760      -0.03560601       0.01170099      -0.02037122
H        0.58515778       2.49390334       1.23137172       0.00656117       0.01471376      -0.01274962
H       -2.30433166       1.16880676       1.06749394      -0.02010376       0.02510947      -0.00828148
H       -2.69029984      -0.45016941       3.40607741       0.00931751       0.00672125      -0.01008151
H        1.81279927       1.59319833      -1.03909674      -0.00289308      -0.00686120       0.00306339
H        2.71655065       0.30932961      -3.36469534       0.00157489       0.00389656       0.00092189
H        1.06734720      -2.29179826      -3.57979005       0.00258289      -0.00256535      -0.01128712
H       -1.90195982      -1.47844300      -3.66171334       0.00172122       0.00245797      -0.00276794
H        0.18433207       0.18611582      -5.15815186       0.00194988       0.00517019       0.00851454
H        0.80227691       2.64274231      -3.30738147      -0.00224540      -0.00595965       0.00491022
H       -0.66839823       2.25355489      -1.09379788       0.00025664      -0.00147353       0.00330801
H        2.27704680      -1.26763233      -1.02840359      -0.03962148       0.01150832       0.01794943
H       -0.65261793      -2.51292714      -1.16444870       0.00188058      -0.00808208       0.01045833
H       -2.52778700       0.06726594      -1.12338060      -0.03261793      -0.01193880       0.00433049
H       -1.99287562       1.61411140      -3.46293432       0.00424097      -0.00624716       0.00319831
