45
Properties=species:S:1:pos:R:3:forces:R:3 charge=-1 spin=1 energy=-54314.46927930611 free_energy=-54314.46927930611 stress="0.6739721298217773 0.3397948443889618 -0.4868144392967224 0.3397948443889618 0.9430818557739258 -1.12256920337677 -0.4868144392967224 -1.12256920337677 1.610042691230774" pbc="F F F"
C        0.97858282      -1.05131996       1.55400000      -0.19355370       0.01203157      -0.14171746
B        1.49158906      -0.37921524       3.01845212       0.00017820       0.00061940      -0.00036368
B        0.64576562       1.17266083       3.11719082       0.00421699      -0.00010420      -0.00556067
B       -1.09227623       0.83544086       3.10475839       0.00298542       0.00340148       0.00197008
B        0.01766418      -0.25013490       3.99040022       0.00033284      -0.00054105      -0.00180602
B        0.29325304      -1.67685577       2.96443877       0.00126690       0.00123464      -0.00009493
C       -0.58233961      -1.37540197       1.56400000       0.20388481       0.56296462      -0.33806282
B        1.29555893       0.61226034       1.56162808       0.00270046       0.00010160      -0.00020483
B       -0.30013155       1.39935203       1.60998016      -0.00057809      -0.00082920      -0.00177419
B       -1.48490539       0.06434833       1.54104449       0.00189533       0.00062850      -0.00045986
B       -1.30519209      -0.91499495       3.01766455       0.00160352       0.00023889       0.00080712
C        1.14300000       0.92400000      -1.55300000      -0.33757514      -0.05574304       0.39307028
B        1.63595854       0.18741671      -2.98343620       0.00084962      -0.00113027       0.00167277
B        0.68840883      -1.30245570      -3.07315828       0.00437361       0.00056811       0.00650533
B       -1.02309345      -0.85282796      -3.12031604       0.00261322      -0.00338765      -0.00200786
B        0.17835302       0.14343947      -3.98733786       0.00089609       0.00170180       0.00185360
B        0.52216398       1.56259908      -2.97322476       0.00235338      -0.00080865       0.00063172
C       -0.40000000       1.32300000      -1.56800000       0.03279227      -0.10688512       0.07742203
B        1.32734140      -0.75171348      -1.50542082       0.00345389      -0.00015187      -0.00069379
B       -0.31107784      -1.43539791      -1.59192967      -0.00133172       0.00039196       0.00059756
B       -1.41585314      -0.03628261      -1.58525417       0.00197196      -0.00077179       0.00128889
B       -1.11804084       0.91005616      -3.05434612       0.00078121       0.00006499       0.00061739
Co       0.00000000       0.00000000       0.00000000       0.28315178      -0.41526073       0.00513299
H        1.61503811      -1.76077216       1.05392677       0.00532101      -0.00707949       0.00019521
H        2.57801900      -0.63582584       3.41120907      -0.00058272       0.00119526      -0.00245896
H        1.13348937       2.09194745       3.68435055      -0.00264102      -0.00212328       0.00096657
H       -1.88841655       1.50663991       3.67076567      -0.00298185      -0.00050905       0.00163113
H        0.03292833      -0.34456463       5.17259667      -0.00094339      -0.00229131      -0.00287048
H        0.51384656      -2.79582039       3.27291985      -0.00072403       0.00127429      -0.00285050
H       -0.90494581      -2.26299266       1.04775063      -0.00270747      -0.00359382      -0.00140467
H        2.32193423       1.02055193       1.11981786      -0.00087725       0.00165445       0.00089544
H       -0.51847583       2.51389911       1.24896151      -0.00139071       0.00315790       0.00059126
H       -2.58667204       0.07559771       1.11216545      -0.00100157       0.00082610      -0.00119074
H       -2.22378620      -1.54612544       3.41478523      -0.00061668      -0.00019452      -0.00390076
H        1.80769441       1.59497381      -1.03695259       0.00463053       0.00457070       0.00080223
H        2.74650743       0.36258202      -3.35274740      -0.00054423      -0.00102958       0.00357687
H        1.12878471      -2.26450307      -3.60723806      -0.00293973       0.00327011      -0.00033543
H       -1.84555783      -1.47952932      -3.69938518      -0.00316728       0.00112893      -0.00252107
H        0.22759817       0.22027007      -5.16981552      -0.00025383       0.00318111       0.00218714
H        0.80901223       2.66465593      -3.28745551      -0.00049737       0.00004735       0.00342224
H       -0.67577758       2.25093162      -1.09548342      -0.00154713       0.00180277       0.00127782
H        2.30672906      -1.22462723      -1.02396242      -0.00083787      -0.00135924      -0.00106297
H       -0.60455000      -2.52767751      -1.21656905      -0.00241027      -0.00335860      -0.00088956
H       -2.52703084       0.03797886      -1.18939346      -0.00151774      -0.00030090       0.00126129
H       -1.97717771       1.60314305      -3.47989512      -0.00103277       0.00139736       0.00385414
