45
Properties=species:S:1:pos:R:3:forces:R:3 charge=-1 spin=1 energy=-242.29119873046875 free_energy=-242.29119873046875 stress="-7.164562987327372e-08 2.6358467408726938e-08 -2.97944815486062e-08 2.6358467408726938e-08 -8.66013536438004e-08 1.0160675145698406e-07 -2.97944815486062e-08 1.0160675145698406e-07 -1.4195752839896159e-07" pbc="F F F"
C        0.86332918      -1.14785048       1.55400000       0.18062457      -0.08434051       0.24277948
B        1.42665637      -0.54140261       3.03054920       0.00088721       0.00146152       0.00045875
B        0.74485604       1.09200793       3.09152904       0.00107768       0.00097536      -0.00177726
B       -1.02999602       0.92321771       3.07458173      -0.00109112       0.00190856      -0.00031006
B       -0.03161758      -0.26214986       3.97952950       0.00238191      -0.00064649       0.00007270
B        0.10488677      -1.69284275       3.02335403      -0.00013047      -0.00045196      -0.00024133
C       -0.72291815      -1.30699631       1.56400000      -0.07312265      -0.05858105      -0.00307193
B        1.34991397       0.46891122       1.55213554       0.00009927       0.00245361       0.00030133
B       -0.16870677       1.41700234       1.60229441      -0.00097995      -0.00030974       0.00000238
B       -1.47193074       0.18973505       1.50705322      -0.00540304      -0.00303316       0.00511330
B       -1.40142670      -0.80549021       3.02333549       0.00127655      -0.00304639      -0.00252290
C        1.14300000       0.92400000      -1.55300000       0.12227476      -0.01699641      -0.10351115
B        1.62551808       0.19275984      -2.99326557       0.00067326       0.00104211       0.00228305
B        0.67677307      -1.30033514      -3.03685544       0.00234902      -0.00058955       0.00106345
B       -1.04441775      -0.83711268      -3.08430312      -0.00279351      -0.00023930      -0.00090089
B        0.16284267       0.14785401      -3.97080001       0.00341199       0.00250711      -0.00142572
B        0.51926850       1.55058822      -3.03128334       0.00084041       0.00005280       0.00033921
C       -0.40000000       1.32300000      -1.56800000      -0.13492495       0.27938825      -0.21913949
B        1.33152426      -0.74707498      -1.48989159      -0.00154799       0.00012928       0.00290929
B       -0.32174023      -1.43507488      -1.57828048      -0.00083479       0.00139681       0.00171140
B       -1.41360257      -0.01560976      -1.54999469      -0.00414023       0.00473471      -0.00512257
B       -1.11670633       0.93035552      -3.05542068       0.00236302       0.00459947       0.00306989
Co       0.00000000       0.00000000       0.00000000      -0.09657232      -0.12966689       0.08968697
H        1.46244400      -1.91019774       1.04832686       0.00108394      -0.00245910      -0.00330219
H        2.49680591      -0.88182952       3.43041832       0.00107098       0.00105250      -0.00019799
H        1.30040459       1.97428448       3.67251126      -0.00064807       0.00033136      -0.00037760
H       -1.75420638       1.68764662       3.63649726      -0.00147466       0.00141066       0.00086582
H       -0.03562072      -0.28712680       5.16976692       0.00169075       0.00084228      -0.00019515
H        0.21281735      -2.83508566       3.32903220       0.00112040       0.00038156       0.00036232
H       -1.15788681      -2.15997104       1.03604502      -0.00135997      -0.00245185       0.00207846
H        2.41280585       0.77434248       1.09714162       0.00163801      -0.00008079       0.00263906
H       -0.28608031       2.53416662       1.18683067       0.00005600      -0.00079204      -0.00120311
H       -2.58075374       0.28626956       1.07636603      -0.00247961       0.00100909      -0.00147557
H       -2.40213705      -1.32424946       3.41166932       0.00133896       0.00102389       0.00082697
H        1.84697050       1.58126774      -1.03511882       0.00399351       0.00016297       0.00272013
H        2.74704212       0.33073885      -3.37242406      -0.00025821      -0.00076906      -0.00008762
H        1.09277028      -2.27668557      -3.58235415      -0.00050449      -0.00060180      -0.00213551
H       -1.86652479      -1.48067945      -3.66246728      -0.00271077      -0.00090326      -0.00310954
H        0.19196963       0.15007626      -5.16080070       0.00152557       0.00019991      -0.00207970
H        0.81649391       2.65528399      -3.34901613       0.00089192      -0.00097287       0.00018689
H       -0.70051344       2.25571528      -1.08054605      -0.00035524       0.00199460      -0.00159177
H        2.30696890      -1.21664746      -0.98411917       0.00110135      -0.00109309      -0.00409564
H       -0.63035335      -2.50608622      -1.14164406      -0.00132130       0.00001571      -0.00143131
H       -2.53728121       0.08402410      -1.15885433      -0.00237605      -0.00044016       0.00093284
H       -1.99917765       1.61352837      -3.47448294       0.00125885      -0.00060850      -0.00109756
