45
Properties=species:S:1:pos:R:3:forces:R:3 charge=-1 spin=1 energy=-54314.469790475545 free_energy=-54314.469790475545 stress="-0.20543734729290009 0.02188119664788246 0.05545126646757126 0.02188119664788246 -0.27480563521385193 0.17582203447818756 0.05545126646757126 0.17582203447818756 2.778265953063965" pbc="F F F"
C       -1.20465460       0.81607259       1.52851535       0.00353602       0.02100002      -0.01866452
B       -1.53909217       0.09645154       3.02004631      -0.01250327      -0.00237683      -0.00437946
B       -0.37741771      -1.22321180       3.14560310      -0.01300984      -0.00032239       0.00660049
B        1.24932174      -0.51946485       3.10121195      -0.00677581      -0.00286867      -0.01548518
B       -0.05909992       0.32579801       3.97326491      -0.00920085       0.00693796      -0.01065383
B       -0.65424100       1.62027883       2.91603665       0.00560582      -0.00243447      -0.00962211
C        0.23923658       1.44792219       1.49430362       0.00952639      -0.00619524      -0.00648707
B       -1.15002240      -0.87678347       1.56679686       0.00936950       0.00981497      -0.02874029
B        0.56347363      -1.28786702       1.63600000       0.30618963      -0.11241280      -0.43244869
B        1.44673784       0.25935560       1.51193132      -0.02473664      -0.02651364       0.02952536
B        1.07359013       1.23050876       2.95904988      -0.01668481      -0.00633819      -0.00930672
C        1.02042601       0.99468347      -1.56208587      -0.01154593       0.02405588       0.02224883
B        1.50523364       0.31845144      -3.03172548       0.01206201       0.00020722       0.00357164
B        0.64131950      -1.21484475      -3.12201456       0.01240930       0.00339885      -0.00755354
B       -1.09632716      -0.86049634      -3.09727898       0.00655868       0.00126789       0.01740349
B        0.01515645       0.21255349      -3.99211346       0.00546465       0.01191159       0.01092635
B        0.32477004       1.63000979      -2.97161817      -0.00642706      -0.00150034       0.01021015
C       -0.52237900       1.31612075      -1.54553258      -0.00670373      -0.00829338       0.00525490
B        1.31346816      -0.67301506      -1.55012792      -0.01071810       0.01378594       0.02479440
B       -0.27500000      -1.43300000      -1.61500000      -0.28371444      -0.09861298       0.51086634
B       -1.45652744      -0.09710262      -1.52802879       0.02946678      -0.01842832      -0.02739598
B       -1.28570390       0.89110142      -3.00253968       0.01644923      -0.00438010       0.01149827
Co       0.00000000       0.00000000       0.00000000      -0.01918891       0.20350762      -0.07141935
H       -1.99724706       1.35169471       1.02937360       0.02643818       0.01060953      -0.01621767
H       -2.64669009       0.12148356       3.43430748      -0.03039504       0.00261923      -0.02563173
H       -0.63819595      -2.20882549       3.74756216      -0.00891979      -0.00404494      -0.00870163
H        2.17731518      -0.98973930       3.66923929      -0.01256909       0.00520556      -0.00795638
H       -0.07710070       0.45283614       5.15281676      -0.02178057       0.00231714      -0.01740951
H       -1.09703394       2.68182198       3.19220161      -0.01390424       0.00216811      -0.02523894
H        0.35570790       2.39326784       0.98451109       0.01652017      -0.00649504       0.00435714
H       -2.05850566      -1.52063109       1.16278277       0.00125174       0.00110644      -0.03159238
H        1.01630137      -2.33363052       1.30406663       0.00121961      -0.00508970      -0.00843083
H        2.50907583       0.48867885       1.03651147       0.02044801      -0.01076300      -0.01667398
H        1.83423875       2.06883118       3.31006323      -0.01883355      -0.00596037      -0.01555763
H        1.68268668       1.69564066      -1.07777528      -0.02837305       0.00331992       0.00948345
H        2.58655863       0.55939837      -3.44616601       0.02909699       0.01011541       0.02660979
H        1.10337113      -2.14097746      -3.69701594       0.01167587      -0.00136168       0.01104346
H       -1.90569076      -1.52582150      -3.65160988       0.01382805       0.00723701       0.00620201
H        0.01258242       0.30927471      -5.17472459       0.02313270       0.00527915       0.01764219
H        0.54053598       2.75238345      -3.27620863       0.01399283       0.00634531       0.02190004
H       -0.83376106       2.23192983      -1.06441354      -0.01837753      -0.00986153      -0.00407560
H        2.33238542      -1.10443387      -1.12696409      -0.00196323       0.00351938       0.02779223
H       -0.50399939      -2.53934824      -1.25157175      -0.00035553      -0.00473292       0.00926096
H       -2.54694024      -0.07879073      -1.06115770      -0.01918008      -0.01381484       0.01985416
H       -2.20150302       1.54461138      -3.37532533       0.02161894      -0.00292841       0.01259702
