45
Properties=species:S:1:pos:R:3:forces:R:3 charge=-1 spin=1 energy=-54314.60047628182 free_energy=-54314.60047628182 stress="-0.010649140924215317 0.12623882293701172 0.09839843213558197 0.12623882293701172 0.22368144989013672 0.1522321105003357 0.09839843213558197 0.1522321105003357 -0.6165353059768677" pbc="F F F"
C       -0.79086322      -1.24880901       1.43734824      -0.01509290       0.01930388      -0.00357757
B       -0.06168542      -1.64367366       2.91232955      -0.00320725       0.00777564      -0.00879465
B        1.24263615      -0.46377680       3.09865831      -0.00337472       0.00224191       0.00959683
B        0.51114695       1.14770125       3.14010239       0.00292894       0.00337467       0.00527980
B       -0.31422667      -0.22121664       3.93722186      -0.00847678       0.00089088       0.00942533
B       -1.59868973      -0.78013353       2.84490188       0.00292387       0.00072515       0.00989374
C       -1.44814065       0.19425529       1.48064643      -0.00931045       0.02023826       0.01964985
B        0.90649465      -1.16771365       1.49363454      -0.02327233      -0.03345565       0.01419341
B        1.28786702       0.56347363       1.63600000      -0.01678655      -0.02336422      -0.03666663
B       -0.27235369       1.41097375       1.56877080       0.00598573       0.00616377       0.01855900
B       -1.23719808       0.94818306       2.98087381      -0.00159427       0.01370132       0.00969946
C        1.08410146       0.98075111      -1.44551213      -0.02105303       0.00792312       0.00571847
B        1.63938611       0.30803488      -2.89530958      -0.00574108      -0.00104665       0.00917928
B        0.74937336      -1.21152340      -3.06162076      -0.00187503       0.00314634      -0.00942529
B       -0.97549065      -0.82046156      -3.14241346      -0.00171569      -0.00355862      -0.00412090
B        0.21316385       0.24459011      -3.94401273      -0.00094231       0.00744799      -0.00925570
B        0.48366980       1.64152073      -2.88059267       0.00209962      -0.00311212      -0.01238796
C       -0.46231251       1.33289316      -1.52382370      -0.01898027       0.00301289      -0.01624260
B        1.34235190      -0.70187580      -1.45664475       0.02863701       0.02739890      -0.01407394
B       -0.27500000      -1.43300000      -1.61500000       0.08556370       0.17054270       0.08137055
B       -1.41398229      -0.06882821      -1.59452926      -0.00495970      -0.00590452      -0.01883500
B       -1.13363414       0.93550241      -3.02631199      -0.01303075      -0.00209166      -0.00874853
Co       0.00000000       0.00000000       0.00000000      -0.02306212      -0.20445880      -0.05503967
H       -1.31510392      -2.01177350       0.88645526      -0.00924305       0.00938750       0.01065413
H       -0.05971669      -2.77626398       3.25493011      -0.00993512       0.01256148       0.00274156
H        2.23208732      -0.74388024       3.68587626       0.00620713      -0.01242051       0.00322364
H        0.95971555       2.05555697       3.75592842       0.01042115      -0.00533892       0.00830269
H       -0.44305760      -0.30904381       5.11204833       0.00287100       0.00132956       0.01736223
H       -2.64816438      -1.26479094       3.09060164      -0.00437227       0.01629295       0.00570491
H       -2.38586462       0.32470845       0.96751774       0.00743293      -0.00933041      -0.00226437
H        1.56027545      -2.05485434       1.06337238      -0.00082083      -0.00998042       0.00379607
H        2.32554139       1.04625226       1.31203433       0.02439571       0.00509999      -0.00112817
H       -0.50440981       2.49755094       1.14462477       0.00237469      -0.00615685       0.00830529
H       -2.09143733       1.67053925       3.36844277       0.00680681       0.01029625       0.01460914
H        1.71834394       1.66249118      -0.90349098      -0.01183692       0.00494502      -0.01043195
H        2.75454465       0.52510401      -3.22576227      -0.01166258       0.00713018      -0.00229822
H        1.23469664      -2.13652785      -3.61960652       0.01362926      -0.00263070      -0.00224511
H       -1.76553636      -1.45540711      -3.75690155       0.00863162      -0.00639537      -0.00780523
H        0.29301691       0.36035195      -5.12079141       0.00172079      -0.00161217      -0.01631590
H        0.75111580       2.76014176      -3.15163858      -0.01310783       0.00410730      -0.00455876
H       -0.78841703       2.23776735      -1.03910078       0.01150960      -0.00688406       0.00104794
H        2.33604203      -1.15272384      -0.99923619       0.00938498       0.00200547      -0.00316656
H       -0.54376863      -2.53703775      -1.26500407      -0.00052105      -0.02375916       0.00058214
H       -2.53235101      -0.05058749      -1.19074940       0.00650015       0.00112810      -0.00739853
H       -2.00718118       1.61621540      -3.44498482      -0.00604980      -0.00667033      -0.01411427
