45
Properties=species:S:1:pos:R:3:forces:R:3 charge=-1 spin=1 energy=-54314.35641385811 free_energy=-54314.35641385811 stress="-0.3169720768928528 0.044885605573654175 0.0009958762675523758 0.044885605573654175 0.04895349591970444 0.056480441242456436 0.0009958762675523758 0.056480441242456436 0.048768382519483566" pbc="F F F"
C        1.15320878       0.88984759       1.51983634       0.00336808      -0.00884312      -0.00036235
B        0.58994408       1.47186812       3.00054790      -0.01205639      -0.00122828       0.00892657
B       -1.03301313       0.78424137       3.14194244      -0.00550306      -0.00304255       0.00425014
B       -0.87598821      -0.97819230       3.12565254      -0.00876755       0.00173172      -0.01233311
B        0.34443586       0.01511625       3.97585711      -0.01094802      -0.00472348       0.00485406
B        1.75078875       0.14449840       2.90597049      -0.00189652      -0.00211177       0.01292202
C        1.29428703      -0.67927357       1.49841100      -0.01850817      -0.02405743      -0.00234339
B       -0.46474460       1.37378483       1.57293657       0.00829178      -0.01314337       0.00916128
B       -1.39895725      -0.13792247       1.63600000      -0.19854754       0.03885788      -0.05899799
B       -0.20899979      -1.45090160       1.52994016      -0.01003587       0.00346383       0.00095316
B        0.83498446      -1.36446539       2.97895386      -0.00147475      -0.00263320      -0.00478179
C        1.02896555       1.00458308      -1.52280611      -0.01271635       0.00231512       0.00146858
B        1.55598218       0.35545714      -2.98855635      -0.00833178      -0.01022897      -0.01074554
B        0.69314846      -1.18326035      -3.11602355      -0.00793089      -0.00519464      -0.00569150
B       -1.04032997      -0.83077462      -3.11694655      -0.00510033      -0.00829555       0.01391194
B        0.09000209       0.26014943      -3.97382468      -0.01424489      -0.00913474      -0.00518972
B        0.36711218       1.65920759      -2.92301943      -0.00920402      -0.00173227      -0.01295204
C       -0.51671731       1.32180183      -1.51518369      -0.02438715      -0.01433224       0.00374912
B        1.32639630      -0.66112371      -1.55053994      -0.01339475       0.01532972      -0.01310988
B       -0.27500000      -1.43300000      -1.61500000      -0.00303663       0.06016561       0.05953304
B       -1.44879351      -0.09386052      -1.53363687      -0.00046323      -0.01339485       0.00024041
B       -1.23411206       0.91527318      -2.99564144      -0.00982427      -0.00370493       0.00482944
Co       0.00000000       0.00000000       0.00000000       0.40167290       0.00261386       0.00075913
H        1.92692019       1.44873457       1.02042357       0.00906302       0.01450258       0.01863322
H        0.97276372       2.52896206       3.37197407      -0.00149474      -0.00253566       0.00903832
H       -1.88398920       1.35947248       3.73264766      -0.00199452      -0.00792484      -0.00069707
H       -1.60811201      -1.69822800       3.71667399       0.00051759      -0.00118922      -0.01435095
H        0.48128568       0.01736294       5.15354684      -0.00550555      -0.00924259       0.00429908
H        2.90127003       0.23864841       3.15854342       0.00802709      -0.00202236       0.00570208
H        2.14206224      -1.09653516       0.98447701       0.00444908       0.00384195       0.01293812
H       -0.78108798       2.43785543       1.14631135      -0.00957818       0.01193330      -0.00646468
H       -2.54174028      -0.23873215       1.33538219      -0.00684415      -0.00030124      -0.00239579
H       -0.33543382      -2.54909062       1.11040351       0.00446744       0.01119142      -0.00993594
H        1.39314051      -2.34137449       3.34416538      -0.00041336      -0.00850339      -0.00407704
H        1.66922134       1.71634308      -1.02885680       0.01036243       0.00798676      -0.02274007
H        2.65371382       0.61101086      -3.35204249      -0.00896991       0.00082092      -0.01193717
H        1.17927830      -2.09891480      -3.68990390      -0.01244562      -0.00155008      -0.00268163
H       -1.83323685      -1.48228118      -3.70906449      -0.00515954      -0.00159772       0.01672487
H        0.11837226       0.37922391      -5.15310289      -0.01845629      -0.00413984      -0.00453008
H        0.59316603       2.78756455      -3.19172953      -0.00929023       0.00820588      -0.00599496
H       -0.83975319       2.22127757      -1.02029942       0.00155338       0.00091361      -0.00669944
H        2.34718906      -1.08652471      -1.11435932       0.01041992      -0.00936628       0.00193775
H       -0.50535691      -2.55102315      -1.29719643       0.00103875      -0.00543588       0.00252021
H       -2.55792648      -0.08923204      -1.12268737       0.00931153      -0.00156715       0.01428463
H       -2.13800860       1.57328248      -3.38179386      -0.01601888      -0.00269653       0.00737523
