45
Properties=species:S:1:pos:R:3:forces:R:3 charge=-1 spin=1 energy=-242.22665405273438 free_energy=-242.22665405273438 stress="-4.8512735162375975e-08 3.159319206247346e-08 -2.0148972268430043e-08 3.159319206247346e-08 -9.73162883610712e-08 2.2407979471950057e-08 -2.0148972268430043e-08 2.2407979471950057e-08 -2.1802920002755855e-07" pbc="F F F"
C        0.27533916       1.40964050       1.55400000      -0.05474821       0.20777775       0.25792813
B       -0.57020013       1.40723412       3.01838570      -0.00199675      -0.00139584      -0.00058416
B       -1.32719310      -0.18694814       3.06249223      -0.00072399      -0.00034120      -0.00227092
B       -0.01541852      -1.39713139       3.04878486      -0.00203913       0.00063610       0.00154392
B        0.18714565       0.12654225       3.96485105      -0.00018359       0.00183845       0.00015155
B        1.16912585       1.19179668       3.02363010      -0.00110501       0.00220874       0.00145359
C        1.45501420       0.33731835       1.56400000       0.06593104      -0.07427993       0.13623039
B       -1.25489074       0.70111433       1.53216905      -0.00296676      -0.00038990       0.00592819
B       -0.93942950      -1.06822881       1.55150350       0.00067782      -0.00345901       0.00700743
B        0.84502697      -1.22783717       1.49662422      -0.00186014       0.00190546      -0.00616305
B        1.51730130      -0.52146097       3.01255432      -0.00077133      -0.00179826       0.00244983
C        1.14300000       0.92400000      -1.55300000       0.10255215      -0.03687057      -0.20568784
B        1.61072242       0.17556495      -2.99070656      -0.00028726      -0.00122363       0.00146281
B        0.66324755      -1.31365181      -3.01795209      -0.00019641      -0.00013286       0.00334072
B       -1.06106609      -0.85391459      -3.05336226      -0.00021289       0.00001338      -0.00025165
B        0.13786831       0.11885007      -3.95733872      -0.00104361       0.00167834      -0.00017497
B        0.50146790       1.53029015      -3.02986288       0.00175019      -0.00004829      -0.00124115
C       -0.40000000       1.32300000      -1.56800000      -0.17656696       0.26239121      -0.26654845
B        1.34368364      -0.74345275      -1.48585212       0.00172716      -0.00221608      -0.00589913
B       -0.32166704      -1.42928917      -1.52785891      -0.00229482      -0.00252956      -0.00757954
B       -1.42048376      -0.01852847      -1.52324473       0.00317577       0.00466631       0.00735450
B       -1.13514298       0.90936506      -3.03628446      -0.00128003      -0.00211073      -0.00095577
Co       0.00000000       0.00000000       0.00000000       0.06399076      -0.36264899       0.06929532
H        0.45156957       2.37966778       1.07744493       0.00099438       0.00227289      -0.00171894
H       -1.02962507       2.42737806       3.42924918      -0.00022459      -0.00077514      -0.00049093
H       -2.36065288      -0.37350715       3.62991629       0.00086665      -0.00015218      -0.00139243
H       -0.11190991      -2.45230784       3.59859928      -0.00140863       0.00013104       0.00070517
H        0.19943762       0.13327138       5.15445720       0.00003025      -0.00000066      -0.00005656
H        1.94152246       2.03270812       3.34841687       0.00064340       0.00162634       0.00000471
H        2.39611211       0.58448848       1.06460704       0.00252131       0.00001635      -0.00080707
H       -2.18572915       1.28550228       1.06108134      -0.00264967       0.00111920       0.00196934
H       -1.70180603      -1.90818859       1.17077014       0.00276040      -0.00030019      -0.00205169
H        1.51329471      -2.10692239       1.04320245       0.00253495      -0.00420198       0.00598839
H        2.56677364      -0.91843197       3.41352431       0.00181803       0.00049910       0.00133534
H        1.85729759       1.59754738      -1.06977759       0.00252753       0.00330279       0.00169961
H        2.72482567       0.31660103      -3.38944704      -0.00117263      -0.00039710       0.00000629
H        1.06919646      -2.29760435      -3.55799187      -0.00100417       0.00077607       0.00271982
H       -1.88648517      -1.50808242      -3.61529036       0.00075139      -0.00158288       0.00014714
H        0.15825620       0.11530465      -5.14686146      -0.00012898      -0.00074320      -0.00010476
H        0.79640422       2.63030204      -3.36495375      -0.00030380       0.00061554      -0.00042635
H       -0.70410229       2.26555000      -1.10122577      -0.00180186       0.00225586       0.00060038
H        2.32403750      -1.20746843      -0.98727988       0.00617119      -0.00095658      -0.00557572
H       -0.61877479      -2.51586380      -1.12606756      -0.00322290       0.00197551       0.00235923
H       -2.52862372       0.08746925      -1.08751571      -0.00119324       0.00049094      -0.00091803
H       -2.01812316       1.58895438      -3.45897574      -0.00003685       0.00035805      -0.00078273
