45
Properties=species:S:1:pos:R:3:forces:R:3 charge=-1 spin=1 energy=-242.29969787597656 free_energy=-242.29969787597656 stress="-6.696200482991799e-09 -2.4303075107923178e-08 1.2343068789277822e-08 -2.4303075107923178e-08 2.3608656363194314e-08 6.145432962512132e-08 1.2343068789277822e-08 6.145432962512132e-08 5.5305754642631655e-08" pbc="F F F"
C       -1.14583938      -0.93599620       1.59268762      -0.01114255      -0.00222377       0.00483090
B       -0.51038282      -1.47147835       3.05127704      -0.00345925      -0.00345834       0.00933508
B        1.08651158      -0.72058861       3.11382042       0.00465697       0.00081119      -0.00884685
B        0.85131738       1.04776933       3.11451927       0.00200906      -0.00112660      -0.01707157
B       -0.29431455      -0.00939285       4.00474740       0.00200919       0.00251282      -0.00002665
B       -1.71323249      -0.19835005       3.03518015      -0.00331296      -0.00788566       0.01728759
C       -1.35669740       0.65547641       1.59086391      -0.00757074      -0.00720541       0.00050500
B        0.48464792      -1.31913049       1.52755300      -0.02984208      -0.02451995       0.02513244
B        1.38753651       0.22549156       1.63600000      -0.05334154      -0.00042233      -0.02248241
B        0.10575395       1.46995096       1.55337598       0.01922549      -0.01972312      -0.03920619
B       -0.88405370       1.34950150       3.04464877      -0.00116402      -0.00315415       0.00548470
C        1.14170815       0.96431724      -1.58999518      -0.00635774       0.01226109       0.00250673
B        1.62179644       0.24656610      -3.02946424       0.00147762       0.00423363      -0.00621938
B        0.69804981      -1.25457921      -3.08108222       0.00298645      -0.00250660       0.00968076
B       -1.03159233      -0.82263652      -3.11059329       0.00260542      -0.00609969       0.01649210
B        0.15788090       0.18394858      -4.00232315       0.00177840      -0.00431094      -0.00055331
B        0.49887283       1.58757546      -3.05188842       0.00416374       0.00251355      -0.02039666
C       -0.41959181       1.36073369      -1.62038887       0.00346383       0.01084483      -0.01280507
B        1.32736703      -0.69323429      -1.48014735       0.01870352       0.03281200      -0.00741167
B       -0.27500000      -1.43300000      -1.61500000      -0.11643790       0.15161151       0.06347238
B       -1.39688294      -0.00967835      -1.57757446       0.00169975      -0.01995194       0.00330758
B       -1.13843699       0.94051260      -3.07373450       0.00008886      -0.00242342      -0.01080228
Co       0.00000000       0.00000000       0.00000000       0.15673593      -0.08179986      -0.01574154
H       -1.87670784      -1.56233637       1.07360671      -0.00447012       0.01214594      -0.02212295
H       -0.79619274      -2.55882322       3.44717255       0.00418894      -0.01041977      -0.00106846
H        1.98749973      -1.25274030       3.68931572       0.00472818      -0.00277314      -0.00986861
H        1.58174364       1.79035734       3.69814670      -0.00211490       0.00091489      -0.01445474
H       -0.33691134      -0.01244172       5.19432052       0.01126732       0.00003589       0.00198425
H       -2.85147155      -0.34665145       3.33827911      -0.00636595      -0.00733545       0.00860269
H       -2.23521067       1.06218112       1.08210187      -0.00910366      -0.02318773      -0.01926451
H        0.83509558      -2.38078165       1.10376126      -0.00467151      -0.00767160      -0.00193936
H        2.51232569       0.37465836       1.25841894       0.00465900       0.00078321      -0.02280557
H        0.16995158       2.56898625       1.08368450      -0.00763577      -0.00489547      -0.00185063
H       -1.45060830       2.31941240       3.44448905      -0.00190499       0.00216092      -0.00154084
H        1.84017780       1.62449195      -1.06860297      -0.02259062       0.01564670       0.02030809
H        2.74028804       0.39436863      -3.41409993       0.00979739      -0.00089116       0.01101652
H        1.13201487      -2.21604287      -3.64100500       0.01068792      -0.00433785       0.01612783
H       -1.84734767      -1.47151462      -3.69283415       0.00583050      -0.00400719       0.01114094
H        0.17795416       0.20925606      -5.19223433       0.00306097      -0.01529419      -0.00198863
H        0.78322450       2.69496649      -3.37170792       0.00497631       0.00563323      -0.01025763
H       -0.72905766       2.29253478      -1.13864060       0.01190621       0.00326657       0.01610854
H        2.33739497      -1.15129035      -1.03485646       0.00108040       0.00935684       0.01629417
H       -0.56166824      -2.52087510      -1.21125728      -0.00088370      -0.00307478       0.02000035
H       -2.50543487       0.04914993      -1.12830985       0.00301538       0.00860650      -0.00145898
H       -2.03074585       1.60870321      -3.49684395      -0.00443248      -0.00545157      -0.00943400
