45
Properties=species:S:1:pos:R:3:forces:R:3 charge=-1 spin=1 energy=-54314.231452005086 free_energy=-54314.231452005086 stress="1.457637071609497 0.5716637969017029 -0.050078488886356354 0.5716637969017029 0.6418924331665039 0.17161358892917633 -0.050078488886356354 0.17161358892917633 -0.7866505980491638" pbc="F F F"
C       -0.42825745       1.37094623       1.55400000       0.23389995       0.12722602      -0.00805511
B       -1.18118728       0.98864303       3.01692764       0.00547119       0.00754894       0.00144495
B       -1.10982511      -0.77489125       3.09110875       0.00678113       0.00663539       0.00678189
B        0.59414618      -1.23707778       3.07808443       0.01434349       0.01012525       0.00870432
B        0.08154106       0.21380163       3.98203961      -0.00339782       0.00719507       0.00788980
B        0.46603794       1.62694110       2.97312316      -0.00189171       0.00884652       0.00687259
C        1.11946439       0.98876159       1.56400000      -0.60106105      -0.51003528      -0.02943870
B       -1.45393211       0.02344394       1.54447735      -0.00212960      -0.01358379      -0.00400101
B       -0.36414753      -1.38469221       1.56715902       0.01031139      -0.00401971       0.01309269
B        1.29011646      -0.70833091       1.52868578       0.00529224       0.01878211       0.00586744
B        1.56116281       0.23910482       3.01476818       0.00167341       0.00571229       0.00550448
C        1.14300000       0.92400000      -1.55300000      -0.46902227      -0.04272002      -0.03785139
B        1.61104349       0.18106692      -2.99244112      -0.00212870       0.00754198      -0.00416852
B        0.66964836      -1.31359670      -3.04198868      -0.00355444       0.00802733      -0.00817553
B       -1.04021841      -0.87629703      -3.06761031      -0.00733429       0.01261481      -0.00851611
B        0.13921185       0.11503603      -3.97129594       0.00117217       0.00256679      -0.00757220
B        0.49613706       1.54921333      -2.98366699       0.00473571       0.00477993      -0.00745778
C       -0.40000000       1.32300000      -1.56800000       0.09770883      -0.16234733      -0.06152493
B        1.34021553      -0.75395122      -1.49781986      -0.00792086      -0.01525598       0.00675308
B       -0.30319479      -1.44382560      -1.52977120      -0.01060132       0.00057237      -0.01253943
B       -1.41449667      -0.04707717      -1.53996039       0.00334609       0.01345561      -0.00509307
B       -1.14250267       0.88572291      -3.03156309       0.00102493       0.00466137      -0.00255977
Co       0.00000000       0.00000000       0.00000000       0.72667807       0.44464517       0.13032921
H       -0.69265786       2.31030118       1.09258320      -0.00043994      -0.02199924       0.00132643
H       -2.04382503       1.69660265       3.41134744      -0.00230119       0.00450409      -0.00163100
H       -1.94953464      -1.39719225       3.64834550       0.00392649       0.00827480       0.00739063
H        1.01510255      -2.20145492       3.62234102       0.00031726       0.00945332       0.01919936
H        0.11021001       0.28716107       5.16480578      -0.00421311       0.01834504       0.00835097
H        0.75993227       2.72750690       3.29124183      -0.00302249       0.01462391      -0.00184724
H        1.81437646       1.65881101       1.08538695      -0.01152018      -0.00104342       0.00362078
H       -2.55881963       0.12673621       1.13223934       0.00463444      -0.01976284       0.01010949
H       -0.66230360      -2.48223934       1.23527214       0.01506884      -0.00587369       0.01311447
H        2.27965925      -1.20893291       1.12369766       0.01006200       0.02135411       0.00429683
H        2.66814688       0.38787203       3.40696099      -0.00386246       0.01402640       0.01270194
H        1.82371060       1.61793695      -1.08644813      -0.01121655      -0.02208725      -0.00118299
H        2.71639677       0.35223362      -3.37974838       0.00361290       0.00262072      -0.00169934
H        1.10151010      -2.28331953      -3.56730654      -0.00188527       0.00821011      -0.01018218
H       -1.87102713      -1.51576767      -3.61896116       0.00161308       0.00727505      -0.01598316
H        0.16609077       0.17126069      -5.15507294       0.00861817       0.01370883      -0.00777375
H        0.77132108       2.65105573      -3.31429158       0.00648437       0.00998870       0.00163292
H       -0.68292276       2.26640838      -1.12806581       0.00724869      -0.00767518      -0.00216380
H        2.34093535      -1.21531014      -1.06952827      -0.01948239      -0.02034773      -0.00610520
H       -0.58298483      -2.53882245      -1.17468842      -0.01517621       0.00053967      -0.01336244
H       -2.52504443       0.03052662      -1.14282151      -0.00002729       0.01567235      -0.00846124
H       -2.01718632       1.56881314      -3.44387590       0.00816462       0.00721747      -0.00763828
