45
Properties=species:S:1:pos:R:3:forces:R:3 charge=-1 spin=1 energy=-242.29000854492188 free_energy=-242.29000854492188 stress="-5.1175447879359126e-08 9.29336785304713e-09 -5.1805525203008074e-08 9.29336785304713e-09 -9.556664082310817e-08 5.6943171955481375e-08 -5.1805525203008074e-08 5.6943171955481375e-08 -2.21268606992453e-07" pbc="F F F"
C        1.23180491       0.73861673       1.55400000       0.11760959       0.15679988       0.30200559
B        0.67695761       1.36068803       3.02597157      -0.00274294      -0.00016208       0.00373882
B       -1.01629935       0.85940839       3.08096597      -0.00021866      -0.00071929      -0.00205732
B       -1.04031458      -0.92466881       3.05728424      -0.00105599       0.00221787       0.00083941
B        0.23527688      -0.06350922       3.97276914      -0.00151617       0.00092182       0.00017766
B        1.67862136      -0.07903959       3.02571570      -0.00238212       0.00067028       0.00431171
C        1.22427092      -0.85557624       1.56400000       0.00749868      -0.09089302       0.09452263
B       -0.31768564       1.39983365       1.54669395      -0.00323986       0.00282919       0.00296170
B       -1.42629954      -0.00679167       1.57665177      -0.00206700       0.00238817       0.00646049
B       -0.34896405      -1.43294569       1.47964701       0.00353169      -0.00212824       0.00019659
B        0.63523397      -1.48058753       3.01500796      -0.00249797       0.00129319       0.00384199
C        1.14300000       0.92400000      -1.55300000       0.08869086      -0.01545790      -0.20878579
B        1.61633275       0.19664082      -2.99886152      -0.00149070      -0.00128988      -0.00489189
B        0.67276211      -1.29452418      -3.04823395      -0.00211905       0.00041611      -0.00001841
B       -1.05237034      -0.83694113      -3.07679222       0.00024968      -0.00014687      -0.00067426
B        0.14391226       0.14955186      -3.97096572      -0.00193140       0.00051574      -0.00058380
B        0.50341600       1.55013068      -3.02806031      -0.00234317      -0.00125576      -0.00393278
C       -0.40000000       1.32300000      -1.56800000      -0.15997915       0.31203592      -0.24338827
B        1.34171843      -0.74220003      -1.50721763       0.00165036      -0.00307228      -0.00161374
B       -0.30797982      -1.43518755      -1.56968871       0.00229751      -0.00301617      -0.00701538
B       -1.40350141      -0.02472695      -1.51898940      -0.00073385       0.00340405      -0.00104470
B       -1.13109969       0.92466192      -3.04382519      -0.00007153      -0.00194642      -0.00258799
Co       0.00000000       0.00000000       0.00000000      -0.03979448      -0.37410605       0.06441485
H        2.07222193       1.25193175       1.07747465       0.00133806      -0.00030266       0.00171204
H        1.13145920       2.38371277       3.43475187      -0.00006645       0.00033742      -0.00022206
H       -1.83891254       1.50259184       3.65894037       0.00205097      -0.00190084      -0.00361235
H       -1.88436041      -1.56608412       3.60628026      -0.00000553       0.00157037      -0.00046232
H        0.25353380      -0.07203922       5.16266659      -0.00002832       0.00062768      -0.00225502
H        2.82235262      -0.09291886       3.34317269       0.00046760       0.00019670       0.00003767
H        2.03148022      -1.38572142       1.05380299       0.00046020       0.00014631       0.00021038
H       -0.51370755       2.49160773       1.09704534       0.00234628       0.00284825       0.00190006
H       -2.55549606       0.00421007       1.18455797       0.00011162       0.00101817      -0.00082126
H       -0.56390157      -2.52281204       1.04349300      -0.00045216      -0.00286847      -0.00003114
H        1.03685322      -2.53306578       3.40397729       0.00021257       0.00043651       0.00052397
H        1.85182656       1.59676172      -1.06180911       0.00037724       0.00095220      -0.00157612
H        2.73227422       0.34376607      -3.38955394      -0.00034246       0.00178080      -0.00178759
H        1.08343583      -2.26932352      -3.60041448      -0.00251958       0.00339474      -0.00006851
H       -1.88006966      -1.48350378      -3.64413203       0.00027634       0.00061759       0.00055939
H        0.16722016       0.15680349      -5.16073643      -0.00176822       0.00214219       0.00154503
H        0.79737577       2.65450865      -3.34897261      -0.00103887       0.00149673       0.00053817
H       -0.70380035       2.25624329      -1.08470464      -0.00021224       0.00028725       0.00023237
H        2.32812685      -1.22088985      -1.03182769       0.00368050      -0.00040353      -0.00605065
H       -0.60466414      -2.52520163      -1.18270527       0.00059006      -0.00011993      -0.00064105
H       -2.51783464       0.06653746      -1.09749649      -0.00206094      -0.00174647       0.00186958
H       -2.02034846       1.60280171      -3.45605504      -0.00076142       0.00019048       0.00152218
