45
Properties=species:S:1:pos:R:3:forces:R:3 charge=-1 spin=1 energy=-54314.47022725838 free_energy=-54314.47022725838 stress="1.5283442735671997 0.25732553005218506 0.5447237491607666 0.25732553005218506 0.4561113715171814 -0.3945704996585846 0.5447237491607666 -0.3945704996585846 1.001436471939087" pbc="F F F"
C        0.65322257       1.27913966       1.55400000      -0.07020470      -0.22133449      -0.00279428
B       -0.17372936       1.51511360       3.01005439       0.00512845      -0.00086153       0.00235214
B       -1.34165419       0.18443018       3.07209946       0.00130933      -0.00158092       0.00190733
B       -0.42640935      -1.33208600       3.04913187       0.00350305      -0.00163922       0.00232016
B        0.19884596       0.07175095       3.96597391      -0.00272221      -0.00019973       0.00154525
B        1.45869448       0.83501255       2.97211417       0.00136263      -0.00154054       0.00077896
C        1.49162696      -0.07680506       1.56400000      -0.59513712       0.19773231      -0.35869107
B       -1.02976629       1.00885097       1.53733265      -0.00614389      -0.00443502      -0.00194302
B       -1.21997223      -0.76854721       1.54641043      -0.00163715       0.00097351       0.00003282
B        0.44853074      -1.41721683       1.49033637       0.00223719       0.00178425       0.00017010
B        1.28928311      -0.92984367       2.99688139      -0.00107349       0.00043533       0.00500382
C        1.14300000       0.92400000      -1.55300000      -0.49460068      -0.33229956       0.05779897
B        1.60725506       0.16216006      -2.98404922      -0.00183087       0.00382149      -0.00223918
B        0.64224313      -1.32231379      -3.03296619      -0.00218450       0.00053757      -0.00214401
B       -1.06754594      -0.86142687      -3.05629523      -0.00230941       0.00159047      -0.00268617
B        0.13018898       0.11315309      -3.96127735       0.00038652      -0.00337455      -0.00180992
B        0.50491953       1.54490989      -2.97969576      -0.00209188      -0.00048376      -0.00144465
C       -0.40000000       1.32300000      -1.56800000       0.17680241       0.08709808       0.26383421
B        1.31646737      -0.76625909      -1.49248410      -0.00282035      -0.00698741       0.00125181
B       -0.33907245      -1.44160812      -1.52573237       0.00062422      -0.00204342      -0.00093929
B       -1.42757334      -0.02653244      -1.51775959       0.00035787       0.00218031       0.00046966
B       -1.14504468       0.89884923      -3.02116467       0.00085814      -0.00171927      -0.00424265
Co       0.00000000       0.00000000       0.00000000       0.98178065       0.27707651       0.04037188
H        1.11382263       2.13718707       1.08815645       0.00557006       0.00193677      -0.00524678
H       -0.30797611       2.61914378       3.41697190       0.00007320       0.00114395      -0.00171642
H       -2.37702513       0.31170865       3.63398839      -0.00022566       0.00205010      -0.00210898
H       -0.78908516      -2.31677438       3.59921318      -0.00311283      -0.00023571       0.00111132
H        0.26672564       0.10009068       5.14947435      -0.00108052       0.00110239       0.00026667
H        2.43271417       1.42029162       3.30092103      -0.00112474       0.00172796       0.00064240
H        2.44438840      -0.07809748       1.06070437       0.00687612      -0.00155772      -0.00143900
H       -1.75595800       1.83566156       1.08543599      -0.00138713       0.00222813      -0.00082718
H       -2.18524262      -1.35575653       1.18470582      -0.00113617      -0.00074679       0.00145909
H        0.83113135      -2.44531412       1.04621466       0.00197670       0.00076272       0.00229171
H        2.19256926      -1.58300527       3.39473292      -0.00087554      -0.00002789       0.00106653
H        1.82484312       1.60828787      -1.07293123       0.00036749       0.00535634       0.00457242
H        2.71290959       0.32178858      -3.37739576       0.00130585      -0.00030793       0.00177115
H        1.06058930      -2.29407496      -3.56657657       0.00177276       0.00005509       0.00327057
H       -1.90169883      -1.48722714      -3.61840145      -0.00011654      -0.00420123      -0.00036299
H        0.15848828       0.17104761      -5.14528413       0.00135444      -0.00196966      -0.00052992
H        0.78735244       2.64412747      -3.31330977       0.00151853      -0.00202344      -0.00065749
H       -0.67428784       2.25726072      -1.10365669      -0.00295547       0.00508680       0.00104055
H        2.29487006      -1.24284674      -1.01384674       0.00177279      -0.00179405       0.00027614
H       -0.63828170      -2.52540923      -1.14883249      -0.00145108      -0.00202646      -0.00140146
H       -2.52862622       0.07699018      -1.09499365      -0.00113607       0.00081693      -0.00152232
H       -2.00642058       1.59503347      -3.43848083       0.00041962      -0.00210657      -0.00085835
