45
Properties=species:S:1:pos:R:3:forces:R:3 charge=-1 spin=1 energy=-242.24472045898438 free_energy=-242.24472045898438 stress="1.4515344481935699e-08 -1.212715972087608e-08 2.645469265871725e-08 -1.212715972087608e-08 5.571776284796215e-08 2.435320922700157e-08 2.645469265871725e-08 2.435320922700157e-08 9.179164806027984e-08" pbc="F F F"
C       -1.24380543       0.79834714       1.59190118       0.00367295       0.01394922       0.00077647
B       -1.55653801       0.03165060       3.04923434      -0.01042675      -0.01334986       0.00288324
B       -0.35028378      -1.25544060       3.11392214       0.00899180      -0.00573981       0.00344858
B        1.25955215      -0.48586080       3.11640204      -0.00369096       0.00021429      -0.00567994
B       -0.10056706       0.27765916       4.00474845       0.00864958      -0.00596897       0.00055737
B       -0.71738674       1.56763133       3.03329684      -0.00171775       0.00273523      -0.00534225
C        0.20718615       1.49299625       1.59213051      -0.04037492       0.00260684      -0.00720322
B       -1.10378471      -0.87129534       1.53001205       0.00119039      -0.00285733       0.02171917
B        0.64322758      -1.24994491       1.63600000      -0.06350605       0.04450715      -0.15837145
B        1.43467063       0.35656292       1.55829238      -0.01765245      -0.01526105      -0.01644482
B        1.01008061       1.25820324       3.04360397      -0.00075513      -0.00447024       0.00747751
C        1.14344304       0.96171780      -1.59035027      -0.02005616       0.03046736       0.01243219
B        1.62116817       0.24769703      -3.02731120       0.01186427      -0.01949114      -0.01027958
B        0.69810165      -1.25394611      -3.08138186      -0.00403585      -0.00822935      -0.00068603
B       -1.03182326      -0.82220057      -3.11234015       0.00396599      -0.00080284       0.00443573
B        0.15814967       0.18512734      -4.00223632      -0.00910547      -0.00967498      -0.00070987
B        0.49938299       1.58695515      -3.04914149      -0.01259359       0.00287071      -0.00956389
C       -0.41959572       1.36041395      -1.61975831      -0.01268570      -0.00619385      -0.00152871
B        1.32807211      -0.69701442      -1.48342481      -0.00655940      -0.00521087      -0.03507581
B       -0.27500000      -1.43300000      -1.61500000      -0.08276935       0.16961360       0.20078355
B       -1.39894818      -0.00788650      -1.57904711       0.01143977      -0.00194232       0.01509212
B       -1.13801317       0.94117717      -3.07263137       0.00092538      -0.00251203      -0.00055797
Co       0.00000000       0.00000000       0.00000000       0.17605318      -0.22000405      -0.03075238
H       -2.06797270       1.30007623       1.07542362       0.00689252       0.00472278       0.01331472
H       -2.67875474      -0.03263568       3.44721534       0.00268254      -0.00342242      -0.00507738
H       -0.57696399      -2.27629996       3.69024641      -0.00250333      -0.00756790      -0.00586441
H        2.19153453      -0.95153414       3.69979572       0.00100257       0.00317333      -0.00740694
H       -0.11629979       0.31800065       5.19400411       0.00253835      -0.00986353      -0.00048862
H       -1.20989837       2.60494322       3.33756146      -0.00307707      -0.00835991       0.00133502
H        0.32195237       2.45449235       1.08223859      -0.00555530       0.00860254       0.01259719
H       -2.00670935      -1.52916573       1.10519840      -0.00684169      -0.01540916      -0.01186001
H        1.13362310      -2.27601346       1.25958359      -0.00976833       0.04503904       0.01481312
H        2.49594218       0.63257358       1.08225798      -0.00304237       0.00528438      -0.00324845
H        1.75761374       2.09566202       3.44464380       0.00112949       0.00684978       0.00266208
H        1.84347854       1.62088992      -1.06984110      -0.00018924       0.02168389      -0.01223426
H        2.73868311       0.39437940      -3.41534470       0.00747451       0.00169442       0.01151282
H        1.13022497      -2.21513166      -3.64285257       0.01380280      -0.00617120       0.01254383
H       -1.84825187      -1.47114563      -3.69413228       0.00720361      -0.00160881       0.00627241
H        0.17732295       0.21128136      -5.19189389       0.00533225      -0.01380427       0.00091882
H        0.78263192       2.69462068      -3.37073799       0.00331147      -0.00083095      -0.00395887
H       -0.73060441       2.29327247      -1.13832760       0.00640628      -0.00389719      -0.01558685
H        2.33802310      -1.15122612      -1.03777743       0.01468370      -0.01227688       0.02471473
H       -0.56180345      -2.52350374      -1.21286555       0.00029857       0.03981926      -0.01328752
H       -2.50579509       0.04900410      -1.12687428       0.01202566       0.00910915      -0.00236146
H       -2.03068178       1.60946184      -3.49581592       0.00536919      -0.00802192      -0.00672065
