45
Properties=species:S:1:pos:R:3:forces:R:3 charge=-1 spin=1 energy=-242.28536987304688 free_energy=-242.28536987304688 stress="-8.481705293661435e-08 1.5846886469716992e-08 6.134742847052621e-08 1.5846886469716992e-08 -4.992163482597789e-08 3.937300618872541e-08 6.134742847052621e-08 3.937300618872541e-08 -2.345571061823648e-07" pbc="F F F"
C       -1.38700000       0.37300000       1.55400000      -0.24199991      -0.02847382       0.23000449
B       -1.44954471      -0.47186132       3.02007455      -0.00447626       0.00566973      -0.00524031
B        0.09251608      -1.33051343       3.07056046      -0.00362895      -0.00094792       0.00177014
B        1.38668376      -0.10124130       3.06826606       0.00175905       0.00175478       0.00508065
B       -0.13210589       0.19798532       3.97168529      -0.00432489       0.00099230       0.00352607
B       -1.12262683       1.24711349       3.02319273      -0.00370362      -0.00010163      -0.00456098
C       -0.23500000       1.47500000       1.56400000       0.02946347       0.03922097       0.17095828
B       -0.76394584      -1.19225888       1.50768986      -0.00243410      -0.00481188       0.00377131
B        1.01391414      -1.00181817       1.57994452      -0.00088045      -0.00355980      -0.00575015
B        1.28691188       0.77520215       1.53079588      -0.00001830       0.00017691       0.00409991
B        0.61354093       1.48332764       3.02212850      -0.00637742       0.00628304      -0.00297349
C        1.14300000       0.92400000      -1.55300000       0.12785289      -0.03887078      -0.17419289
B        1.61571471       0.16530349      -2.98514346       0.00087585       0.00609585       0.00410483
B        0.66136330      -1.32062349      -3.00666602       0.00290212       0.00029776      -0.00128826
B       -1.06123993      -0.85504888      -3.05680701      -0.00143965      -0.00076631      -0.00377356
B        0.15184995       0.10911219      -3.95632567       0.00360603       0.00083894      -0.00233674
B        0.51479597       1.52303085      -3.03585622       0.00554972       0.00045040       0.00253135
C       -0.40000000       1.32300000      -1.56800000      -0.13336322       0.23468351      -0.31357875
B        1.31761301      -0.74584253      -1.44389952       0.00308076      -0.00558994      -0.00384106
B       -0.33658521      -1.43133777      -1.53311652       0.00071435      -0.00362834       0.00602898
B       -1.43173053      -0.00680814      -1.54840085      -0.00029993       0.00074591      -0.00210720
B       -1.12738355       0.90838535      -3.04217279       0.00128747       0.00575460       0.00171109
Co       0.00000000       0.00000000       0.00000000       0.22429675      -0.21187347       0.07634431
H       -2.33356740       0.60419921       1.05668510       0.00259036      -0.00211417       0.00237357
H       -2.49989602      -0.87275268       3.41609494       0.00461811      -0.00066946      -0.00036757
H        0.19939041      -2.37870581       3.63179482       0.00115310       0.00043160       0.00136825
H        2.42486964      -0.27045406       3.63126713       0.00276642       0.00342783       0.00469056
H       -0.14477884       0.21089538       5.16114727      -0.00135982       0.00139831       0.00500873
H       -1.91176324       2.07548003       3.34062004       0.00174767      -0.00379333      -0.00109026
H       -0.42885269       2.43406121       1.07429105      -0.00063457      -0.00168017       0.00065655
H       -1.41856126      -2.09324804       1.07254719       0.00043026       0.00293317       0.00482213
H        1.79991905      -1.81412918       1.19062318      -0.00214042       0.00093120       0.00347846
H        2.21249729       1.36960666       1.06356666       0.00501523       0.00224691       0.00418481
H        1.06814112       2.50715574       3.42845401      -0.00259391       0.00005184       0.00042136
H        1.85525556       1.58661909      -1.05533529      -0.00207493      -0.00147882      -0.00239388
H        2.73674303       0.29143753      -3.36962687      -0.00387850      -0.00357586       0.00035608
H        1.07627935      -2.30841333      -3.53312172      -0.00138418      -0.00129376       0.00104284
H       -1.88047822      -1.50912998      -3.62670616      -0.00372091       0.00050626      -0.00240131
H        0.17708386       0.09972904      -5.14577080       0.00018452      -0.00077135      -0.00319961
H        0.81306394       2.62139984      -3.37389546       0.00044568      -0.00426188       0.00003526
H       -0.69358836       2.27763277      -1.11988896       0.00126283      -0.00107566      -0.00084117
H        2.30808931      -1.21744472      -0.97191947      -0.00054923       0.00247866      -0.00207073
H       -0.64398992      -2.50747041      -1.11247338       0.00234694       0.00185093      -0.00204913
H       -2.53614832       0.09025469      -1.09871277      -0.00467790      -0.00055919      -0.00359761
H       -2.00113329       1.59387513      -3.47458476       0.00201063       0.00067590      -0.00071490
