45
Properties=species:S:1:pos:R:3:forces:R:3 charge=-1 spin=1 energy=-242.2351531982422 free_energy=-242.2351531982422 stress="-6.58547563148204e-08 4.30813074103753e-08 1.1957910217574863e-08 4.30813074103753e-08 -6.870643431966528e-08 1.2080779043799339e-08 1.1957910217574863e-08 1.2080779043799339e-08 -2.1693341523132403e-07" pbc="F F F"
C       -0.69517741       1.25683188       1.55400000      -0.17243966       0.15173784       0.23624969
B       -1.34420015       0.71593135       3.02147218      -0.00123457       0.00096636      -0.00157345
B       -0.89825125      -0.99173768       3.06805178      -0.00065266      -0.00027944      -0.00112122
B        0.88104824      -1.07550650       3.05964190       0.00044808       0.00139578       0.00226349
B        0.05306869       0.22526267       3.97038566      -0.00026666       0.00254240      -0.00025573
B        0.12259526       1.66966613       3.02243521       0.00088431      -0.00023811      -0.00035513
C        0.89778149       1.19366595       1.56400000       0.08042865      -0.04359528       0.18382145
B       -1.40310943      -0.26984000       1.52194823       0.00105846      -0.00089161      -0.00135483
B       -0.03046109      -1.41824718       1.55722754       0.00127224      -0.00053835       0.00190037
B        1.44393864      -0.39258000       1.52005332       0.00139007       0.00148595       0.00427864
B        1.49171815       0.58150044       3.02031045      -0.00257223       0.00239874      -0.00031214
C        1.14300000       0.92400000      -1.55300000       0.11039005      -0.03447169      -0.21266879
B        1.60899514       0.17699256      -2.99417649       0.00082354      -0.00383316      -0.00187526
B        0.66000303      -1.31280909      -3.02019998      -0.00198767       0.00031039       0.00134461
B       -1.06116151      -0.85547018      -3.05524551       0.00298850       0.00111252      -0.00180872
B        0.13926351       0.11877455      -3.95987262       0.00025541      -0.00166369       0.00168981
B        0.50336192       1.53015979      -3.03059746      -0.00051958      -0.00052138      -0.00313837
C       -0.40000000       1.32300000      -1.56800000      -0.19120026       0.22344261      -0.26502389
B        1.33384576      -0.74236659      -1.47370239      -0.00351936      -0.00318393       0.00325930
B       -0.32209169      -1.42650085      -1.52329934      -0.00170041       0.00009006      -0.00229742
B       -1.42550821      -0.01489203      -1.53814598      -0.00200173      -0.00147414      -0.00293157
B       -1.13420770       0.90914857      -3.03753631       0.00144497      -0.00340306      -0.00397914
Co       0.00000000       0.00000000       0.00000000       0.17563799      -0.30276442       0.05383043
H       -1.18341142       2.10831655       1.07018496      -0.00047706       0.00141440      -0.00430222
H       -2.35579951       1.19952512       3.42461292      -0.00231621      -0.00042549      -0.00125088
H       -1.57348588      -1.79954478       3.63022291      -0.00123408      -0.00043335      -0.00007011
H        1.48058860      -1.94450008       3.61598029       0.00083348      -0.00010920       0.00231045
H        0.05728906       0.24144444       5.15992615      -0.00182778       0.00137792       0.00050682
H        0.17333961       2.81180108       3.34163599      -0.00199587      -0.00030196      -0.00105068
H        1.46042780       1.99300430       1.07400676       0.00457633       0.00354815      -0.00359880
H       -2.50811739      -0.41729825       1.09297903      -0.00055002      -0.00030791      -0.00452468
H       -0.08216410      -2.54654583       1.16473693      -0.00021625      -0.00224321       0.00110530
H        2.53170033      -0.64319298       1.09994644       0.00171900       0.00031799      -0.00392685
H        2.54598330       0.95914894       3.42714242      -0.00201160       0.00139955       0.00039566
H        1.85716482       1.59451412      -1.06729867      -0.00076160       0.00108544       0.00464809
H        2.72454364       0.31383364      -3.38910018       0.00275648      -0.00126361       0.00141248
H        1.06773669      -2.29883015      -3.55510693      -0.00002985       0.00090437       0.00289518
H       -1.88355548      -1.51134036      -3.61924324       0.00177726       0.00144369       0.00078563
H        0.15754443       0.11611406      -5.14955582       0.00172842      -0.00062058       0.00239594
H        0.79732281       2.63059834      -3.36442983       0.00214646       0.00090370      -0.00014588
H       -0.70335311       2.26964472      -1.11012068      -0.00241108       0.00529128       0.00174604
H        2.33423251      -1.21814067      -1.03193400       0.00073664      -0.00080525       0.00841866
H       -0.61123175      -2.50950887      -1.10800833      -0.00036553      -0.00105268       0.00034103
H       -2.53930893       0.08123631      -1.11797298      -0.00262100       0.00028237       0.00213344
H       -2.01324425       1.59152109      -3.46372929       0.00161640       0.00097087      -0.00016703
