45
Properties=species:S:1:pos:R:3:forces:R:3 charge=-1 spin=1 energy=-54314.46681501168 free_energy=-54314.46681501168 stress="0.02054235152900219 0.18154385685920715 0.4237510859966278 0.18154385685920715 -0.4028838872909546 0.23130245506763458 0.4237510859966278 0.23130245506763458 1.0940793752670288" pbc="F F F"
C       -1.38188888       0.44387541       1.49670572      -0.00159335      -0.00547273       0.00441747
B       -1.52275831      -0.36564356       2.97108556      -0.01696569       0.00636969      -0.01516523
B       -0.02809225      -1.29036749       3.11888928      -0.00464783       0.00938704       0.01215927
B        1.32124973      -0.14084416       3.12099667       0.00498349       0.00754350      -0.00933825
B       -0.19729404       0.27574441       3.96036393      -0.01287195      -0.01634695       0.00342132
B       -1.11642287       1.35247705       2.89438394       0.00376971       0.00907235      -0.00397293
C       -0.17596716       1.46315897       1.49393932      -0.00607909      -0.00546300       0.04403000
B       -0.83556025      -1.16888087       1.52850569      -0.01342217       0.00065674       0.00461540
B        0.93386806      -1.05071140       1.63600000       0.09599082      -0.24869464      -0.39752004
B        1.31837848       0.67282477       1.53550908      -0.01465532       0.00184396       0.01852196
B        0.64853368       1.48212681       2.97661042      -0.00294359      -0.00409312      -0.00562331
C        0.98524544       1.02456781      -1.53055661       0.00520111      -0.00488208      -0.00057656
B        1.52194008       0.35272063      -2.98222222       0.01216053       0.00992824       0.01645358
B        0.68957648      -1.19821081      -3.09432319      -0.00025337       0.01017313      -0.01085461
B       -1.05402039      -0.87581506      -3.11747099      -0.00889834       0.00456568       0.00856440
B        0.06030970       0.21978668      -3.97943667       0.01999178      -0.00763704      -0.00253205
B        0.31207426       1.64061551      -2.95117214      -0.01053264       0.00560482       0.00407141
C       -0.56742988       1.30570714      -1.54673676       0.00935937      -0.00230714      -0.04210440
B        1.31438001      -0.64550376      -1.51170903       0.01166875       0.00926379      -0.00298076
B       -0.27500000      -1.43300000      -1.61500000       0.05345066      -0.16762802       0.47844258
B       -1.46560297      -0.12615804      -1.55259483       0.01236343       0.00652565      -0.02066750
B       -1.28161866       0.86935813      -3.02190421       0.00407934      -0.00328312       0.00662420
Co       0.00000000       0.00000000       0.00000000      -0.12906991       0.35369432      -0.08668559
H       -2.28072922       0.73533090       0.97863134       0.00376120       0.01064122       0.00164425
H       -2.60193882      -0.67507860       3.34407142      -0.00994666       0.01518191       0.01148834
H        0.00063633      -2.31759681       3.70708518      -0.01442774       0.00194429       0.00233092
H        2.33390286      -0.32587954       3.70736340      -0.00564795      -0.00439280       0.00447945
H       -0.28231022       0.37496012       5.13865812      -0.00308202       0.01202329       0.00661871
H       -1.86045963       2.23283858       3.15955944       0.00748349       0.01004276      -0.00952336
H       -0.32290588       2.40776867       0.99166486       0.00350263      -0.01586321       0.03994662
H       -1.51283064      -2.03861602       1.09460352      -0.00781388      -0.00973299       0.01363763
H        1.67565523      -1.91906494       1.31278573      -0.00525221       0.00076244       0.00672301
H        2.28678435       1.18948222       1.07856180      -0.02514961      -0.00452060       0.01644319
H        1.12059865       2.50302282       3.34919371      -0.00088987      -0.00964768      -0.01110904
H        1.61494665       1.74083735      -1.02896777      -0.00406575       0.00738087      -0.00140139
H        2.61442336       0.61237627      -3.35457321       0.00047048       0.01711014      -0.01128471
H        1.18324888      -2.11756752      -3.65395917       0.00978557       0.00931526      -0.00274339
H       -1.83635615      -1.55592510      -3.69094418       0.00761962      -0.00242892      -0.00536667
H        0.09276768       0.31573565      -5.16066125      -0.00329465       0.01146785      -0.00676680
H        0.51907047       2.76702954      -3.24652335      -0.01070379       0.00555585       0.01020455
H       -0.91470362       2.21195645      -1.07319617       0.00114011      -0.01648791      -0.03910198
H        2.33340860      -1.04746577      -1.06040778       0.00986049      -0.00701198      -0.01293357
H       -0.48650741      -2.54517326      -1.25915737       0.00437045       0.00287141      -0.00785083
H       -2.56603670      -0.14789331      -1.10259504       0.02488282       0.00573497      -0.01981102
H       -2.19799485       1.50764062      -3.41797445       0.00631188      -0.00876741       0.01107580
