45
Properties=species:S:1:pos:R:3:forces:R:3 charge=-1 spin=1 energy=-54314.45368673104 free_energy=-54314.45368673104 stress="0.8152461647987366 0.38967928290367126 -0.4228876233100891 0.38967928290367126 1.0999388694763184 -1.0830204486846924 -0.4228876233100891 -1.0830204486846924 0.8860454559326172" pbc="F F F"
C        1.03574324      -0.99505474       1.55400000      -0.24442482       0.11093488      -0.02473331
B        1.50023715      -0.28777556       3.02260945       0.00453680       0.00252951      -0.00994291
B        0.56002454       1.20986740       3.11726165      -0.01182806      -0.00078147       0.00621347
B       -1.15432935       0.76681562       3.09961847      -0.00124663       0.00343593       0.00438782
B        0.01759630      -0.24779777       3.98942403       0.00815010       0.00008308       0.00388680
B        0.38487402      -1.65470698       2.96672915      -0.00384444      -0.00672963      -0.01339907
C       -0.50465460      -1.40576447       1.56400000       0.20271628       0.49054551      -0.36954787
B        1.24849065       0.68896656       1.56690661      -0.00870475       0.00484082      -0.02105180
B       -0.39467219       1.37946020       1.60791644       0.01159011      -0.00194122      -0.00875767
B       -1.49305633      -0.02709773       1.53371547      -0.00857182       0.00511928       0.02537268
B       -1.25699070      -0.99287945       3.01326360      -0.01103449       0.01302174       0.00455622
C        1.14300000       0.92400000      -1.55300000      -0.42170936      -0.25435266       0.25227043
B        1.61800779       0.16499199      -2.98493284       0.00398786       0.00468000       0.00627570
B        0.65625412      -1.31868115      -3.05774599      -0.01006360       0.00792462      -0.01530842
B       -1.05281936      -0.85552766      -3.09798562      -0.00034446       0.00321134      -0.01010088
B        0.15294588       0.12320352      -3.97851282       0.00545378       0.00750645      -0.00943182
B        0.51736484       1.54721956      -2.97889808      -0.00854310       0.01238782       0.01161314
C       -0.40000000       1.32300000      -1.56800000       0.05508950      -0.01260976       0.16000718
B        1.31213051      -0.76040853      -1.50399667      -0.01414472      -0.00625765       0.03576939
B       -0.33686324      -1.43602680      -1.57367328       0.01296738      -0.00142067       0.00249798
B       -1.42866018      -0.02522158      -1.56535867      -0.00547479      -0.00323869      -0.03060939
B       -1.12935387       0.90799061      -3.04366581      -0.00711266      -0.00848549      -0.01080366
Co       0.00000000       0.00000000       0.00000000       0.26036817      -0.38716143       0.04216141
H        1.71544829      -1.66932391       1.06310725       0.00111912       0.00472743      -0.01181517
H        2.59935609      -0.47314077       3.41903662       0.00605276      -0.00773503       0.00380542
H        0.98624639       2.15785811       3.68667452       0.00775762      -0.00348549      -0.00120136
H       -1.99310101       1.38635620       3.66282121      -0.00024536       0.00373200       0.00424058
H        0.03474998      -0.34189318       5.17115185       0.00034119       0.00127804       0.00927175
H        0.66904947      -2.75891105       3.27491958       0.00307380      -0.00661029       0.00482122
H       -0.77577392      -2.31189478       1.05070430       0.00521459      -0.00262580      -0.00183184
H        2.24799048       1.16353438       1.13171837       0.02217447       0.00144542      -0.00551913
H       -0.68205317       2.47919611       1.24635572       0.01278206      -0.02344972       0.01155785
H       -2.59433269      -0.08758340       1.10664228       0.01955510      -0.00229046       0.00859422
H       -2.13753608      -1.67974257       3.40361684       0.00021252      -0.00165097       0.00490243
H        1.81462899       1.59610290      -1.04844614       0.00115530      -0.00370974       0.00966858
H        2.72769828       0.32103922      -3.36313943       0.01102117       0.01440646      -0.00688528
H        1.08277884      -2.28967414      -3.58655339       0.01108648       0.00777960      -0.00606997
H       -1.88565981      -1.47807275      -3.66666897       0.00407835      -0.00021571      -0.01052599
H        0.19498680       0.19063847      -5.16118102       0.00306748       0.00702104      -0.01397721
H        0.80551761       2.64505453      -3.30477321       0.00447795       0.01095947      -0.00149513
H       -0.67203912       2.25460012      -1.10039392       0.00452590       0.00221103       0.00018475
H        2.28872367      -1.24317516      -1.02980954       0.03097076      -0.00563889       0.00578479
H       -0.63989784      -2.52426332      -1.19160270       0.01576627       0.01868583      -0.01616454
H       -2.53800494       0.06704335      -1.16637287       0.02423346      -0.00128150      -0.01416832
H       -1.98640453       1.60595816      -3.46532851       0.00376657       0.00320502      -0.00450297
