45
Properties=species:S:1:pos:R:3:forces:R:3 charge=-1 spin=1 energy=-54314.46613218087 free_energy=-54314.46613218087 stress="0.9074574708938599 0.2364368736743927 -0.21140773594379425 0.2364368736743927 0.9127362370491028 -1.278248906135559 -0.21140773594379425 -1.278248906135559 1.5460518598556519" pbc="F F F"
C        1.27913966      -0.65322257       1.55400000      -0.28356224       0.13840100       0.05826529
B        1.51307553       0.16071818       3.02246495      -0.00256123       0.00176911      -0.00237190
B        0.17563302       1.31974630       3.11252448      -0.00274595       0.00055280      -0.00213256
B       -1.33660068       0.39817364       3.08659476      -0.00308048       0.00037908      -0.00009902
B        0.07874224      -0.23089773       3.98468980      -0.00285154       0.00103770      -0.00126297
B        0.84353729      -1.47137643       2.96667666      -0.00139256       0.00136200      -0.00031130
C       -0.07680506      -1.49162696       1.56400000       0.15809803       0.47908112      -0.50745952
B        0.99076543       1.02382316       1.56680928       0.00191111      -0.00202671      -0.00163120
B       -0.78173009       1.20571926       1.59698816      -0.00051905      -0.00069987       0.00081162
B       -1.42311283      -0.46130684       1.51635369       0.00128177      -0.00325804       0.00686631
B       -0.92235119      -1.31368258       3.00601783      -0.00309836      -0.00047720      -0.00076577
C        1.14300000       0.92400000      -1.55300000      -0.39291114      -0.27906957       0.18340904
B        1.61896643       0.18339120      -2.99255216      -0.00260063      -0.00270649       0.00205371
B        0.65323692      -1.29769887      -3.08229105      -0.00302974      -0.00104597       0.00185909
B       -1.05488893      -0.83408379      -3.11359053      -0.00314308      -0.00109342      -0.00031344
B        0.15344241       0.15462403      -3.98744051      -0.00276322      -0.00116814       0.00103422
B        0.51912591       1.56622952      -2.97250981      -0.00171982      -0.00163220       0.00035969
C       -0.40000000       1.32300000      -1.56800000       0.13291709       0.10915171       0.30239841
B        1.30826330      -0.76171535      -1.52244024       0.00141333       0.00234214       0.00277078
B       -0.33907612      -1.43080351      -1.59250364      -0.00034532       0.00157606      -0.00061592
B       -1.42871994      -0.02006107      -1.56627315       0.00055104       0.00355692      -0.00765257
B       -1.12965360       0.92645270      -3.04383547      -0.00324134       0.00029514       0.00013700
Co       0.00000000       0.00000000       0.00000000       0.44099399      -0.44584963      -0.03340662
H        2.12725253      -1.10247696       1.06835222      -0.00107996       0.00052108      -0.00223950
H        2.61775647       0.30110064       3.42399397      -0.00416994       0.00124093      -0.00123010
H        0.30880135       2.35056514       3.68212643      -0.00310319       0.00035396      -0.00176466
H       -2.31922406       0.74875704       3.64877572      -0.00460936       0.00098526      -0.00200714
H        0.11770480      -0.31429872       5.16710348      -0.00350473       0.00138835      -0.00129033
H        1.43403729      -2.44601142       3.27918297      -0.00121673       0.00201664       0.00027723
H       -0.07170880      -2.43617485       1.04724323       0.00064861      -0.00446891      -0.00087903
H        1.81160847       1.77286042       1.14017063      -0.00079779       0.00070087      -0.00071776
H       -1.37347622       2.17207848       1.23018584       0.00044114      -0.00101484      -0.00221088
H       -2.45081145      -0.84693669       1.07469938       0.00571638       0.00043237       0.00074566
H       -1.56504079      -2.22712854       3.39598997      -0.00250102      -0.00116340      -0.00136018
H        1.81432952       1.59414190      -1.04587232       0.00080328      -0.00026765       0.00237650
H        2.72911474       0.34699346      -3.36948068      -0.00396375      -0.00239187       0.00104965
H        1.08236893      -2.26097205      -3.62331119      -0.00347912      -0.00066862       0.00096147
H       -1.88488378      -1.45045767      -3.69283532      -0.00480158      -0.00123992       0.00124808
H        0.19579479       0.23554748      -5.16987073      -0.00336024      -0.00144788       0.00112799
H        0.80742412       2.66907275      -3.28328741      -0.00076376      -0.00238367       0.00024897
H       -0.67059109       2.25051855      -1.09057216      -0.00041558       0.00388428       0.00121081
H        2.28836017      -1.25551848      -1.06305346      -0.00022922      -0.00177356       0.00094877
H       -0.64366307      -2.51988632      -1.21923560      -0.00031445       0.00179279       0.00100688
H       -2.53442016       0.07718116      -1.15754968       0.00599903       0.00159967      -0.00098006
H       -1.98436010       1.63179863      -3.45759831      -0.00289834       0.00142631       0.00153522
