45
Properties=species:S:1:pos:R:3:forces:R:3 charge=-1 spin=1 energy=-54314.507569329915 free_energy=-54314.507569329915 stress="0.6682431697845459 0.4298589527606964 -0.6313393115997314 0.4298589527606964 1.0949960947036743 -1.2674952745437622 -0.6313393115997314 -1.2674952745437622 1.6691734790802002" pbc="F F F"
C        0.82274386      -1.17728099       1.55400000      -0.16266426       0.05786262      -0.21188228
B        1.42399474      -0.57745801       3.01563894       0.00095174       0.00085099      -0.00105916
B        0.80165745       1.07706303       3.11189749       0.00296541      -0.00124584      -0.00123026
B       -0.96657977       0.98493378       3.10096073       0.00218700       0.00038906       0.00202215
B       -0.01831439      -0.24342949       3.98701702      -0.00053897      -0.00130817       0.00095216
B        0.05658574      -1.69696047       2.96416944      -0.00089372      -0.00030950      -0.00015066
C       -0.76809128      -1.28097064       1.56400000       0.23382512       0.55598015      -0.36701766
B        1.36734567       0.42889322       1.55616121      -0.00216717      -0.00314550      -0.00158095
B       -0.10307293       1.42915233       1.60527997       0.00214002       0.00121825      -0.00123687
B       -1.46124301       0.27369722       1.53960302      -0.00469657       0.00073348       0.00349535
B       -1.42124300      -0.71971536       3.01486222       0.00018168      -0.00076168       0.00323964
C        1.14300000       0.92400000      -1.55300000      -0.31988010      -0.09214475       0.48382550
B        1.63495874       0.17625513      -2.97644393       0.00042294      -0.00074072       0.00122442
B        0.68651401      -1.31366408      -3.05935922       0.00285312       0.00144020       0.00027867
B       -1.02521151      -0.86336852      -3.11058988       0.00207133      -0.00063874      -0.00243871
B        0.17698682       0.12846280      -3.98025863      -0.00058968       0.00306121      -0.00169995
B        0.52132835       1.55329303      -2.97408754      -0.00104411       0.00160977       0.00059983
C       -0.40000000       1.32300000      -1.56800000      -0.01347194      -0.14604414       0.07222444
B        1.32562727      -0.75536510      -1.49294980      -0.00164595       0.00357311       0.00198757
B       -0.31293855      -1.43865247      -1.57972341       0.00210165      -0.00192487       0.00114923
B       -1.41662591      -0.04018557      -1.58051476      -0.00402293      -0.00004939      -0.00346587
B       -1.11976680       0.90074754      -3.05082529       0.00017256       0.00151259      -0.00339815
Co       0.00000000       0.00000000       0.00000000       0.23820935      -0.38246611       0.02778247
H        1.35475194      -1.96802903       1.05170109      -0.00250356       0.00616014       0.00073693
H        2.46415411      -0.98090289       3.40985262       0.00049743      -0.00160066       0.00002684
H        1.41181311       1.92026788       3.67863768       0.00110341      -0.00097966       0.00080786
H       -1.66257181       1.76042624       3.66590483      -0.00028154       0.00068136       0.00124059
H       -0.01648559      -0.33803588       5.16913442       0.00028650      -0.00064222       0.00168460
H        0.11937585      -2.83463988       3.27623938       0.00002830      -0.00090315       0.00003409
H       -1.21148340      -2.11493479       1.04671361       0.00411256       0.00407086       0.00181739
H        2.43654459       0.69426213       1.10857020       0.00444320       0.00031091      -0.00096583
H       -0.16391968       2.56141604       1.23584174       0.00180685      -0.00409269       0.00281676
H       -2.54785105       0.44247936       1.10279352       0.00399132      -0.00029780       0.00126807
H       -2.41840755      -1.21691697       3.41266965      -0.00203250      -0.00015821       0.00100097
H        1.80780140       1.59506442      -1.03542510      -0.00307184      -0.00473545      -0.00078057
H        2.74551618       0.34801211      -3.34687506       0.00044309       0.00217788      -0.00033207
H        1.12602787      -2.27797047      -3.58983687       0.00126044       0.00126376      -0.00164652
H       -1.84862409      -1.49116187      -3.68738728      -0.00051519      -0.00015371      -0.00205054
H        0.22658305       0.20039182      -5.16285152       0.00031628       0.00153743      -0.00274868
H        0.80853345       2.65302260      -3.29574568       0.00028422       0.00180913       0.00006328
H       -0.67592052       2.25199651      -1.09688093       0.00246566      -0.00316648      -0.00111481
H        2.29898649      -1.22959147      -1.00198167       0.00517149      -0.00182495       0.00078080
H       -0.60665093      -2.52720518      -1.19120967       0.00246887       0.00219728      -0.00314684
H       -2.52636611       0.03045025      -1.17719827       0.00527147      -0.00058443      -0.00192310
H       -1.97846054       1.59213302      -3.47998665      -0.00201285       0.00147862      -0.00119027
