45
Properties=species:S:1:pos:R:3:forces:R:3 charge=-1 spin=1 energy=-242.3106231689453 free_energy=-242.3106231689453 stress="-6.375080374709796e-08 2.4931553710416665e-08 -3.73142121645742e-08 2.4931553710416665e-08 -8.299661402588754e-08 1.053495992664466e-07 -3.73142121645742e-08 1.053495992664466e-07 -1.5751631110560993e-07" pbc="F F F"
C        1.11537478      -0.90489618       1.55400000       0.19082132      -0.05096897       0.26930755
B        1.51420640      -0.17771897       3.03078345      -0.00085635       0.00060233      -0.00025614
B        0.45688069       1.24195877       3.09062284       0.00252118      -0.00042251      -0.00121531
B       -1.22365456       0.64793965       3.07256190      -0.00115152       0.00228363      -0.00127118
B        0.03183622      -0.25898239       3.97948606       0.00036611       0.00165214       0.00094489
B        0.51039443      -1.61477725       3.02493216      -0.00096672      -0.00028913      -0.00216085
C       -0.38525337      -1.44306266       1.56400000      -0.05879721      -0.07342413       0.01775908
B        1.19748061       0.78106481       1.55261091       0.00066367      -0.00161813       0.00072472
B       -0.50447186       1.33459223       1.59988491       0.00241832       0.00132978      -0.00230993
B       -1.47180368      -0.17257384       1.50202270       0.00353730      -0.00284350      -0.00200848
B       -1.16471636      -1.11855375       3.02416227      -0.00086039      -0.00188391      -0.00420817
C        1.14300000       0.92400000      -1.55300000       0.11907967      -0.01126921      -0.13039817
B        1.62477285       0.19425578      -2.99585540      -0.00121554       0.00304030       0.00168009
B        0.67489541      -1.29808353      -3.04317422       0.00364677       0.00229213      -0.00038008
B       -1.04568541      -0.83317351      -3.08786275      -0.00173044      -0.00140487      -0.00035945
B        0.16234473       0.15151447      -3.97370814       0.00161157       0.00195254      -0.00168232
B        0.51918185       1.55223329      -3.03172512       0.00043629       0.00110101       0.00318948
C       -0.40000000       1.32300000      -1.56800000      -0.13606235       0.29326859      -0.22060913
B        1.33138472      -0.74673831      -1.49625581       0.00055423       0.00300968      -0.00298156
B       -0.31956090      -1.43418379      -1.58294748       0.00245437      -0.00141078       0.00091526
B       -1.41105283      -0.01467059      -1.54745219       0.00417045       0.00529557       0.00208746
B       -1.11606295       0.93282508      -3.05693991      -0.00089222       0.00462801       0.00522698
Co       0.00000000       0.00000000       0.00000000      -0.10657810      -0.18570486       0.07811009
H        1.88111946      -1.50661620       1.05742661      -0.00511636       0.00430717       0.00474703
H        2.63486282      -0.24850408       3.43081715      -0.00150743      -0.00019241       0.00140184
H        0.78157824       2.23308679       3.67068105      -0.00128849       0.00006734      -0.00045644
H       -2.11278843       1.21364850       3.63291157      -0.00302182       0.00208881      -0.00127705
H        0.03584123      -0.28318524       5.16959297      -0.00204515       0.00138654       0.00183180
H        0.89274400      -2.69605009       3.33224492      -0.00121604       0.00040662       0.00133246
H       -0.60374826      -2.37694880       1.03983472       0.00174106       0.00239804       0.00014226
H        2.16271064       1.33612468       1.11538829       0.00217698      -0.00152792       0.00216820
H       -0.88574701       2.38816589       1.17716736       0.00316698       0.00132960      -0.00211318
H       -2.56937707      -0.34859732       1.06670248       0.00060526       0.00166234      -0.00343835
H       -2.00977251      -1.86389317       3.41326684      -0.00188525       0.00075425      -0.00025944
H        1.84688835       1.58425309      -1.03932063      -0.00495736      -0.00427962      -0.00258350
H        2.74648125       0.33218480      -3.37435312      -0.00294548       0.00116991      -0.00192861
H        1.08959928      -2.27445750      -3.58931156      -0.00150856       0.00141031      -0.00305814
H       -1.86962130      -1.47496220      -3.66533747      -0.00402065      -0.00092530      -0.00201102
H        0.19348194       0.15477549      -5.16358725      -0.00196512       0.00209338      -0.00311822
H        0.81810439       2.65674567      -3.34841106      -0.00138005       0.00048038       0.00037099
H       -0.70253042       2.25367219      -1.07812082      -0.00066938       0.00030991       0.00014635
H        2.31934101      -1.21890047      -1.01744445       0.00127269       0.00106009      -0.00489842
H       -0.62764465      -2.50823976      -1.15488891       0.00242994      -0.00205029      -0.00019469
H       -2.53314862       0.08568386      -1.15077708       0.00111316      -0.00232296       0.00252602
H       -1.99806507       1.61692541      -3.47514065      -0.00214891       0.00115770       0.00056559
