45
Properties=species:S:1:pos:R:3:forces:R:3 charge=-1 spin=1 energy=-242.2692413330078 free_energy=-242.2692413330078 stress="-5.333460251222277e-08 1.942442651170495e-08 -6.64673516226344e-09 1.942442651170495e-08 -9.767561692797244e-08 1.1063831095725618e-07 -6.64673516226344e-09 1.1063831095725618e-07 -1.2135438964833156e-07" pbc="F F F"
C        0.22339127      -1.41880032       1.55400000       0.06889857      -0.19993955       0.23159526
B        0.99475927      -1.15133707       3.04000805      -0.00145202      -0.00082029      -0.00121450
B        1.16088066       0.61074336       3.09967397       0.00127505      -0.00236630      -0.00215881
B       -0.48279813       1.30171076       3.07215198       0.00117660       0.00074433      -0.00121444
B       -0.16306549      -0.21740341       3.98065013       0.00111563      -0.00056159      -0.00034157
B       -0.71028268      -1.54436873       3.02230644      -0.00037804       0.00089031      -0.00123495
C       -1.25189644      -0.81461973       1.56400000      -0.08390974       0.03455284      -0.00376183
B        1.40908924      -0.22871321       1.55290368      -0.00149018       0.00232629       0.00064491
B        0.51848297       1.32745705       1.60722954       0.00044964      -0.00253457      -0.00099806
B       -1.21189959       0.86573785       1.51420624      -0.00477305      -0.00077817      -0.00370027
B       -1.62348032      -0.04913102       3.01528603      -0.00038333      -0.00257811      -0.00334000
C        1.14300000       0.92400000      -1.55300000       0.11544045       0.03579792      -0.09296305
B        1.62026603       0.19894160      -3.00014558      -0.00063585       0.00304150       0.00120026
B        0.67251872      -1.29437746      -3.04135182       0.00212218       0.00140379       0.00141241
B       -1.05129145      -0.83718132      -3.07972047       0.00058648      -0.00080298       0.00111692
B        0.15473596       0.15197777      -3.97042971       0.00143703       0.00118579       0.00016556
B        0.51375983       1.55340358      -3.02998887       0.00033674      -0.00066567       0.00134809
C       -0.40000000       1.32300000      -1.56800000      -0.16064554       0.22856724      -0.23191325
B        1.33439991      -0.73983610      -1.48523375      -0.00272331      -0.00005366      -0.00107625
B       -0.31837179      -1.43471534      -1.57785819       0.00178743       0.00219575       0.00008810
B       -1.41860286      -0.02191011      -1.55397536      -0.00289670       0.00290859       0.00331600
B       -1.12511208       0.93028592      -3.04695678       0.00094682       0.00209084       0.00241051
Co       0.00000000       0.00000000       0.00000000       0.07330495      -0.11327410       0.10120060
H        0.39035320      -2.37436341       1.04854794      -0.00086911      -0.00547552      -0.00429731
H        1.77917523      -1.95390539       3.44238594      -0.00119744       0.00051220       0.00057504
H        2.06478131       1.12737376       3.68374976       0.00014384       0.00014577       0.00007298
H       -0.76172945       2.31528224       3.63737767       0.00003139       0.00275390      -0.00109801
H       -0.18480579      -0.23640176       5.17079211      -0.00053381       0.00119239       0.00081472
H       -1.15232337      -2.60428274       3.32448429      -0.00022633       0.00263527       0.00007367
H       -2.03849722      -1.36048072       1.03526648      -0.00673443      -0.00409996      -0.00391975
H        2.50730563      -0.47116925       1.15106195       0.00013705      -0.00037517      -0.00646286
H        0.96519654       2.35939540       1.19440195      -0.00055576       0.00030105      -0.00223723
H       -2.12169868       1.46665274       1.02435647       0.00129803      -0.00253030       0.00221568
H       -2.75175216      -0.03951192       3.40042430       0.00003120       0.00201081      -0.00059786
H        1.84377831       1.58519895      -1.03513405       0.00734073       0.00576782       0.00272907
H        2.74118843       0.33571465      -3.38200172      -0.00157523       0.00141677      -0.00049372
H        1.08841978      -2.27007341      -3.58879137       0.00028754       0.00014037      -0.00104934
H       -1.87145797      -1.48110484      -3.66042186      -0.00151159      -0.00163723       0.00056487
H        0.17874126       0.15626411      -5.16066156      -0.00112723       0.00049753      -0.00061545
H        0.81100966       2.65858153      -3.34642706      -0.00205769      -0.00145262       0.00084765
H       -0.70296835       2.25523453      -1.08101048      -0.00336038       0.00668359       0.00443894
H        2.33179993      -1.21000894      -1.02853504       0.00019364       0.00039355       0.00537167
H       -0.60168955      -2.51411086      -1.14406048      -0.00049748      -0.00049709       0.00279477
H       -2.52280046       0.06734474      -1.10367222       0.00280680       0.00115034      -0.00094049
H       -2.00725146       1.61509754      -3.46408767      -0.00161362      -0.00086375       0.00063123
