45
Properties=species:S:1:pos:R:3:forces:R:3 charge=-1 spin=1 energy=-54314.39341832894 free_energy=-54314.39341832894 stress="-0.27160096168518066 0.21127690374851227 0.3527897894382477 0.21127690374851227 -0.46739310026168823 0.24649174511432648 0.3527897894382477 0.24649174511432648 -0.23743167519569397" pbc="F F F"
C       -1.45110348      -0.00699782       1.50256037       0.00048983       0.00009036       0.00431889
B       -1.33792086      -0.81762165       2.97601074      -0.00790517       0.00070774      -0.00732019
B        0.36881344      -1.23596048       3.12239709       0.00352763       0.00558913       0.02704210
B        1.29788563       0.27069686       3.12779222       0.00512251       0.01823412      -0.00842074
B       -0.27531616       0.20040690       3.96624405      -0.00173693      -0.02535234       0.02092445
B       -1.48020978       0.94041077       2.90069130       0.00319079       0.01578246      -0.00951219
C       -0.62051277       1.33497810       1.50457152      -0.00655452       0.01137286       0.03225713
B       -0.43482618      -1.36947740       1.53294337      -0.01155185       0.00167432       0.01122620
B        1.21284898      -0.71070482       1.63600000       0.11361653      -0.20670639      -0.26148656
B        1.04084245       1.04641036       1.54814246      -0.00501642       0.01085586       0.00883418
B        0.15821087       1.60751285       2.98572702      -0.00700318       0.00751185      -0.01656643
C        0.98758733       1.02285848      -1.53403095      -0.00045656      -0.00319625      -0.00210904
B        1.52358957       0.35490585      -2.98581325       0.00831376       0.00100667       0.00872008
B        0.69203462      -1.19588720      -3.09743028      -0.00286292       0.00070861      -0.02517523
B       -1.04916634      -0.87696554      -3.12479682      -0.01655133       0.01065101       0.00875218
B        0.06324550       0.22095830      -3.98479868       0.02391145      -0.01488259      -0.01921195
B        0.31364448       1.64003957      -2.95598501      -0.01621905       0.00918076       0.00834493
C       -0.56477620       1.30465722      -1.55651919      -0.00269539       0.01140322      -0.03142067
B        1.31524705      -0.64498307      -1.51504907       0.00855127       0.01194016      -0.01024615
B       -0.27500000      -1.43300000      -1.61500000       0.09673273      -0.13338602       0.33552364
B       -1.46113110      -0.12367094      -1.56693692      -0.00474157       0.00924675      -0.00900833
B       -1.27867226       0.86781539      -3.03116228       0.00018032       0.00999372       0.01714164
Co       0.00000000       0.00000000       0.00000000      -0.22050363       0.31804118      -0.09084394
H       -2.39488450       0.00212820       0.98662048      -0.01049896      -0.00989150       0.00855408
H       -2.27142601      -1.44193814       3.34733949      -0.00063789      -0.00408722       0.00957356
H        0.71105532      -2.20503108       3.70909057      -0.00201914      -0.01577937       0.01040359
H        2.31986715       0.40863643       3.71060152      -0.00162025      -0.01134136       0.01528795
H       -0.38729214       0.27118941       5.14322323      -0.00555419      -0.00452338       0.03625431
H       -2.45812316       1.55346595       3.15726108      -0.00313587      -0.00347800       0.01122117
H       -1.05602570       2.19028290       1.01371995      -0.01172202      -0.01220902       0.00014671
H       -0.81296210      -2.40893392       1.11160887      -0.00054698      -0.00947455       0.02524623
H        2.18741587      -1.31088894       1.32593497       0.00355834       0.00281101       0.01995342
H        1.80273140       1.83994813       1.09998894      -0.00324781       0.02065016       0.02366926
H        0.29348584       2.72687450       3.34865073       0.00024670      -0.00874022       0.01788690
H        1.61017536       1.74483406      -1.03544381       0.01219135      -0.00035642      -0.00482011
H        2.61501614       0.61869347      -3.35753685       0.00551254      -0.00196840      -0.00694165
H        1.18748634      -2.11405483      -3.65594146       0.01498057      -0.00903736      -0.00946227
H       -1.83355824      -1.55778874      -3.69442230       0.01204939      -0.00618971      -0.01586417
H        0.09389052       0.31909607      -5.16479570       0.01093844       0.00175248      -0.03501091
H        0.51496058       2.76895822      -3.24364049       0.00739735       0.00221632      -0.00896705
H       -0.91251768       2.21472248      -1.09497114       0.01638463       0.00042254       0.00158156
H        2.33813100      -1.04813172      -1.07631230       0.00625049      -0.00883626      -0.02250597
H       -0.48407189      -2.54870366      -1.27303272      -0.00472012      -0.00164007      -0.02169229
H       -2.56438844      -0.14533977      -1.12749037      -0.01519928       0.01538755      -0.02852958
H       -2.19848892       1.50651353      -3.41738611       0.00955444      -0.00615398      -0.01774851
