45
Properties=species:S:1:pos:R:3:forces:R:3 charge=-1 spin=1 energy=-54314.48535634774 free_energy=-54314.48535634774 stress="1.0256695747375488 0.420646071434021 -0.8433579802513123 0.420646071434021 0.3950822949409485 -0.4806608557701111 -0.8433579802513123 -0.4806608557701111 0.40832188725471497" pbc="F F F"
C       -0.45935442      -1.36084221       1.55400000       0.00063977       0.25999358      -0.12972300
B        0.37514702      -1.47394956       3.02010335       0.00403357      -0.00466101      -0.00608785
B        1.32675291       0.01375745       3.11090762      -0.00292497       0.01833024       0.01207906
B        0.19643347       1.37578296       3.10364980      -0.01370246       0.01628274      -0.01330554
B       -0.21956194      -0.11754482       3.98897622      -0.00700074      -0.00952878       0.01118831
B       -1.33592822      -1.05052090       2.96601611      -0.01494845      -0.00263844      -0.00206596
C       -1.48684520      -0.14192026       1.56400000       0.39103952      -0.02629131      -0.30353412
B        1.15319647      -0.83667986       1.55560541       0.00642637       0.00775040      -0.01922461
B        1.07117242       0.94314846       1.60635964      -0.00793458       0.01297509      -0.02262031
B       -0.66603610       1.33851832       1.54548181      -0.00715837      -0.03132487      -0.01099282
B       -1.44073201       0.71832632       3.01584368      -0.00239285       0.00387671       0.01174081
C        1.14300000       0.92400000      -1.55300000      -0.44783235      -0.29757386       0.32824862
B        1.60444793       0.15913504      -2.97970546       0.01149933       0.00271118       0.00420052
B        0.64084866      -1.31990912      -3.04360320      -0.01352586      -0.00265822      -0.01929214
B       -1.06655268      -0.85568390      -3.09249854      -0.01976373       0.00855789       0.01246347
B        0.13923150       0.11831617      -3.97309155       0.01158517       0.01328244      -0.01380081
B        0.51005169       1.54490624      -2.97832717      -0.00434211       0.01438378       0.00232820
C       -0.40000000       1.32300000      -1.56800000       0.05726391       0.11446656       0.01668670
B        1.30749553      -0.76270473      -1.48297578      -0.00778261      -0.00809340       0.01838865
B       -0.34377736      -1.43240070      -1.56104756      -0.01325525       0.00011681       0.02299171
B       -1.43048535      -0.02101468      -1.56872066       0.02733411       0.02304769       0.00784453
B       -1.14023931       0.91056283      -3.04101470      -0.00197298      -0.00234478      -0.01026066
Co       0.00000000       0.00000000       0.00000000      -0.02662257      -0.07197426       0.12698328
H       -0.77689066      -2.26035678       1.05537834      -0.00063730      -0.00213668       0.00364337
H        0.68626244      -2.54581460       3.41031483      -0.01195916      -0.00447145       0.01990999
H        2.36916790       0.03299292       3.67257219       0.00334849      -0.00729504       0.01886171
H        0.40451045       2.39948044       3.66318936       0.00181701       0.00674188       0.01170072
H       -0.28940660      -0.17702841       5.17044924      -0.01500568       0.00589134       0.02198192
H       -2.21111819      -1.78057309       3.27474001      -0.01800293      -0.00555238       0.00779346
H       -2.42618703      -0.28699682       1.05666169       0.03917296       0.00837932       0.02190227
H        2.01276783      -1.54523968       1.16075407       0.01344044      -0.01413954       0.01486037
H        1.94052030       1.67335278       1.24395707       0.00537708      -0.00970004       0.01751857
H       -1.19053066       2.29925303       1.08275191       0.00503221       0.00376008       0.00023797
H       -2.43938269       1.21570740       3.41042327      -0.01072505       0.00699852      -0.00001906
H        1.81381653       1.59399312      -1.04360069      -0.00284640      -0.00315637      -0.00753694
H        2.71517419       0.30216608      -3.35786300       0.00929713       0.01544279      -0.01797617
H        1.06382734      -2.29353017      -3.56818790       0.01746353      -0.00090509      -0.01845245
H       -1.90201554      -1.48062171      -3.65466216       0.00476554      -0.00618757      -0.01637526
H        0.18440462       0.17801957      -5.15558682      -0.00130575       0.01059506      -0.02552921
H        0.80240641       2.64053814      -3.30754527       0.00130293       0.01809004      -0.00787714
H       -0.66838057       2.25921825      -1.10546325       0.00800572      -0.03954371      -0.02081631
H        2.29237922      -1.24958784      -1.04733826       0.02140603      -0.00492911      -0.01354760
H       -0.65184068      -2.51606668      -1.17383148       0.01460582      -0.00636542      -0.02214793
H       -2.53201179       0.08027163      -1.13509686      -0.00134359      -0.01071911      -0.00815566
H       -1.99410591       1.61359400      -3.46274230      -0.00187055       0.00051632      -0.00421286
