45
Properties=species:S:1:pos:R:3:forces:R:3 charge=-1 spin=1 energy=-54314.53462888497 free_energy=-54314.53462888497 stress="1.0356494188308716 0.1227966696023941 0.12455371022224426 0.1227966696023941 1.0112428665161133 -1.539673089981079 0.12455371022224426 -1.539673089981079 1.9353142976760864" pbc="F F F"
C        1.41839099      -0.22597569       1.55400000      -0.34515110       0.07951546       0.05514253
B        1.37940190       0.62795037       3.01877196       0.00074455       0.00011457      -0.00118354
B       -0.25161145       1.31866590       3.09530147       0.00216036       0.00246335      -0.00066696
B       -1.40854020      -0.02444064       3.06364195       0.00111963       0.00290148      -0.00051859
B        0.12618449      -0.18450837       3.97336327      -0.00072359       0.00285301      -0.00164860
B        1.24546428      -1.13236846       2.96885496      -0.00104671       0.00052012      -0.00113653
C        0.38789213      -1.44235561       1.56400000      -0.05234847       0.53615940      -0.60821408
B        0.62501722       1.28262760       1.55566797       0.00091740       0.00010698      -0.00244451
B       -1.11878036       0.91343502       1.57595113       0.00080733       0.00230199      -0.00177406
B       -1.21594922      -0.87071218       1.49545227      -0.00036109       0.00475087       0.00071476
B       -0.48605664      -1.52610645       2.99352062       0.00003291       0.00133358       0.00145941
C        1.14300000       0.92400000      -1.55300000      -0.42707956      -0.35232562       0.16817954
B        1.61240707       0.17047975      -2.98951402       0.00025297      -0.00001292       0.00129347
B        0.64363830      -1.31066068      -3.06572383       0.00297914      -0.00126437       0.00171036
B       -1.06661259      -0.84740926      -3.09003261       0.00239160      -0.00214416       0.00069885
B        0.13927460       0.13590973      -3.97615032       0.00060668      -0.00341737       0.00212684
B        0.51281687       1.55462373      -2.97453545      -0.00032344      -0.00171817       0.00140623
C       -0.40000000       1.32300000      -1.56800000       0.09228323       0.08294297       0.41318420
B        1.30490699      -0.76538059      -1.51247872       0.00055146       0.00062193       0.00293194
B       -0.34200404      -1.43792079      -1.57131019       0.00196930      -0.00134822       0.00243165
B       -1.43133361      -0.02648675      -1.54336760       0.00237754      -0.00387282      -0.00038545
B       -1.13930949       0.91373169      -3.03040238       0.00034097      -0.00134915      -0.00125691
Co       0.00000000       0.00000000       0.00000000       0.68647301      -0.35788497      -0.03672935
H        2.36486016      -0.39648458       1.06913610       0.00599971       0.00000686      -0.00353697
H        2.38368921       1.10194870       3.42933482       0.00098804      -0.00119913      -0.00219001
H       -0.44817882       2.34061052       3.66246802       0.00223502       0.00312425      -0.00089989
H       -2.45479342       0.00592205       3.61974580       0.00111609       0.00394011      -0.00151607
H        0.17901144      -0.24888220       5.15646374      -0.00045139       0.00138672      -0.00275684
H        2.10355776      -1.87689811       3.29493303      -0.00230043       0.00093496      -0.00073528
H        0.68481758      -2.33889313       1.04544208       0.00057682      -0.00216472      -0.00175625
H        1.17262643       2.24388049       1.11208159       0.00394185      -0.00187088      -0.00735120
H       -1.97241766       1.64987769       1.19468144       0.00556968       0.00347495       0.00013734
H       -2.07087761      -1.55120962       1.03911950      -0.00050485       0.00701345      -0.00146287
H       -0.81892627      -2.59147434       3.38624356      -0.00283921       0.00058454      -0.00133209
H        1.81312898       1.59879245      -1.04770708       0.00433034       0.00322852       0.00353962
H        2.71988302       0.33094464      -3.37636693      -0.00052097       0.00108093       0.00219030
H        1.06768150      -2.27717279      -3.60498329       0.00297137      -0.00159648       0.00135969
H       -1.90016885      -1.46444483      -3.66367757       0.00236702      -0.00271907       0.00199475
H        0.17455107       0.20934711      -5.15937331      -0.00042680      -0.00185852       0.00335947
H        0.79783451       2.65492410      -3.29827985      -0.00168648      -0.00284577       0.00047794
H       -0.66887039       2.25148325      -1.09007640      -0.00075428       0.00162380       0.00134791
H        2.27817210      -1.25975827      -1.03519338       0.00212474       0.00327516       0.00852556
H       -0.64046572      -2.52170179      -1.18103186       0.00725303       0.00090763       0.00092472
H       -2.53208470       0.07144692      -1.11861061       0.00349611      -0.00563082       0.00283264
H       -1.99471534       1.61741240      -3.44621115      -0.00246013      -0.00194427       0.00152652
