45
Properties=species:S:1:pos:R:3:forces:R:3 charge=-1 spin=1 energy=-54314.43421079415 free_energy=-54314.43421079415 stress="-0.07582186907529831 0.02369518019258976 0.24506306648254395 0.02369518019258976 -0.3672197759151459 0.16841334104537964 0.24506306648254395 0.16841334104537964 2.552663803100586" pbc="F F F"
C       -1.09287452       0.96062087       1.52851535       0.00207961      -0.00165847      -0.00683689
B       -1.51486739       0.28859039       3.02004631      -0.01338724      -0.00181984      -0.00192614
B       -0.52775074      -1.16626343       3.14560310      -0.00873442       0.00394579       0.00579390
B        1.17436425      -0.67195025       3.10121195      -0.01123462      -0.00040223      -0.01428561
B       -0.01780058       0.33063618       3.97326491      -0.01055739       0.00768089      -0.01082698
B       -0.44600733       1.68950059       2.91603665      -0.00156996       0.00163871      -0.00663925
C        0.41882290       1.40652060       1.49430362      -0.01594611      -0.01016619      -0.01132986
B       -1.25084424      -0.72573375       1.56679686       0.00608482      -0.01403158       0.00158827
B        0.39761793      -1.34833378       1.63600000       0.29963279      -0.14905342      -0.43377158
B        1.46783576       0.07598617       1.51193132      -0.00557906      -0.00142000      -0.00115383
B        1.21934819       1.08624931       2.95904988      -0.02260740      -0.00260512      -0.00571655
C        1.02042601       0.99468347      -1.56208587      -0.00734787       0.00096544       0.00734469
B        1.50523364       0.31845144      -3.03172548       0.01192537      -0.00034131      -0.00000475
B        0.64131950      -1.21484475      -3.12201456       0.00739679       0.00614027      -0.00747203
B       -1.09632716      -0.86049634      -3.09727898       0.01015332       0.00296602       0.01591915
B        0.01515645       0.21255349      -3.99211346       0.00771108       0.01150622       0.01132906
B        0.32477004       1.63000979      -2.97161817       0.00072263       0.00341967       0.00702106
C       -0.52237900       1.31612075      -1.54553258       0.01658194      -0.00810996       0.01303829
B        1.31346816      -0.67301506      -1.55012792      -0.00486101      -0.01064589      -0.00601695
B       -0.27500000      -1.43300000      -1.61500000      -0.29477787      -0.09930206       0.51059645
B       -1.45652744      -0.09710262      -1.52802879       0.00499965       0.00112428       0.00539979
B       -1.28570390       0.89110142      -3.00253968       0.02027111      -0.00273093       0.00852500
Co       0.00000000       0.00000000       0.00000000       0.00848150       0.22464637      -0.06851999
H       -1.81208590       1.59135763       1.02937360       0.01911109       0.01127063       0.00149037
H       -2.61059422       0.45224386       3.43430748      -0.03126603       0.00703646      -0.02547922
H       -0.91000282      -2.11142108       3.74756216      -0.01036242      -0.00297016      -0.00810802
H        2.03609917      -1.25482486       3.66923929      -0.01244940       0.00855370      -0.00919029
H       -0.01973732       0.45892867       5.15281676      -0.02210649       0.00601322      -0.01749580
H       -0.75226208       2.79816983       3.19220161      -0.01423923       0.00515944      -0.02482670
H        0.65285903       2.32981419       0.98451109       0.00753850      -0.00661952       0.00325412
H       -2.23285934      -1.25064129       1.16278277       0.01091661      -0.00306440      -0.00953642
H        0.71580607      -2.44260549       1.30406663       0.00353922      -0.00229474      -0.00301992
H        2.55053871       0.17035488       1.03651147       0.00024769      -0.00165020       0.00835246
H        2.07906853       1.82262676       3.31006323      -0.02099254      -0.00389461      -0.01643932
H        1.68268668       1.69564066      -1.07777528      -0.01967448       0.00674191      -0.00824869
H        2.58655863       0.55939837      -3.44616601       0.03063331       0.01067638       0.02658934
H        1.10337113      -2.14097746      -3.69701594       0.01287689      -0.00153426       0.01017935
H       -1.90569076      -1.52582150      -3.65160988       0.01424420       0.00920334       0.00724786
H        0.01258242       0.30927471      -5.17472459       0.02374410       0.00634889       0.01767202
H        0.54053598       2.75238345      -3.27620863       0.01449640       0.00775041       0.02150902
H       -0.83376106       2.23192983      -1.06441354      -0.01101875      -0.00705174      -0.00252812
H        2.33238542      -1.10443387      -1.12696409      -0.01267350      -0.00296545       0.00421021
H       -0.50399939      -2.53934824      -1.25157175      -0.00299818      -0.00234957       0.00300280
H       -2.54694024      -0.07879073      -1.06115770      -0.00230481      -0.00297677      -0.00402859
H       -2.20150302       1.54461138      -3.37532533       0.02330026      -0.00312955       0.01333807
