45
Properties=species:S:1:pos:R:3:forces:R:3 charge=-1 spin=1 energy=-54314.44370748299 free_energy=-54314.44370748299 stress="1.0696802139282227 0.5471148490905762 0.15105699002742767 0.5471148490905762 0.587174654006958 0.2803552448749542 0.15105699002742767 0.2803552448749542 1.9340876340866089" pbc="F F F"
C       -0.97121944       1.05812608       1.55400000       0.10930470      -0.08455883      -0.16027983
B       -1.48355395       0.37687457       3.00379476      -0.00778649       0.00024340      -0.01052357
B       -0.63018231      -1.16923567       3.09361829       0.00532161      -0.01063937      -0.00969066
B        1.10359071      -0.82367469       3.09532952       0.00909433      -0.00780176      -0.01847088
B       -0.01489545       0.25277886       3.98416912      -0.00668881      -0.01159332      -0.01377944
B       -0.29053642       1.68293518       2.96562296      -0.00770515      -0.00815256       0.00304825
C        0.59192746       1.37130299       1.56400000      -0.47863197      -0.29094785      -0.21349224
B       -1.28839877      -0.62319045       1.53365297       0.01650969      -0.00079262       0.01951294
B        0.31891838      -1.39245145       1.57578685       0.02209945       0.01156786      -0.00502149
B        1.49348762      -0.05016357       1.53700094      -0.04605876       0.00205623       0.00071066
B        1.31048533       0.92572053       3.02495502       0.00312705      -0.00591387      -0.01170207
C        1.14300000       0.92400000      -1.55300000      -0.43698964      -0.35954320       0.15626985
B        1.60366060       0.16124940      -2.97464549       0.01272032      -0.00441568       0.01312055
B        0.62725514      -1.31130335      -3.03918341       0.00014561      -0.01361307       0.01335071
B       -1.07408625      -0.83636077      -3.08294551      -0.00729362      -0.01062720       0.01936496
B        0.13895307       0.13284035      -3.97083348       0.00888745      -0.01230157       0.01422150
B        0.51585118       1.55597268      -2.97668188       0.01347990      -0.01090277      -0.00467921
C       -0.40000000       1.32300000      -1.56800000       0.26826555       0.18334453       0.05936806
B        1.30014159      -0.77923230      -1.47716910      -0.01839187       0.00719059      -0.02414470
B       -0.36021559      -1.42735213      -1.53439665      -0.02146028       0.01369757       0.00175173
B       -1.43451193      -0.00775890      -1.54955623       0.03875335       0.00014247       0.00601618
B       -1.13822989       0.92499997      -3.04135981      -0.00124270      -0.00742324       0.01642854
Co       0.00000000       0.00000000       0.00000000       0.51406235       0.58012968       0.13404438
H       -1.61752031       1.76894975       1.06324356       0.00196883       0.01345807      -0.00711851
H       -2.57376208       0.62710623       3.39139039       0.00328443      -0.00835252       0.00509030
H       -1.11081253      -2.09331592       3.65849503       0.01264326       0.00438582      -0.00671993
H        1.89759249      -1.49753321       3.66110693       0.00202484       0.00066503      -0.01159977
H       -0.03900850       0.34028698       5.16724802       0.01153588      -0.00457802      -0.01909639
H       -0.51140419       2.80416991       3.27235199       0.00260505      -0.00206230      -0.00047942
H        0.91266849       2.27875184       1.07570127       0.01596845       0.01240256      -0.01446294
H       -2.31539157      -1.04140644       1.11572415       0.01323459       0.00863135      -0.01331436
H        0.55453954      -2.50496566       1.24024122      -0.00300843      -0.00277749      -0.01716383
H        2.59302809      -0.03758546       1.09688088       0.01976776      -0.00589206      -0.03971376
H        2.22594539       1.56267618       3.42442668      -0.00263503      -0.00419266      -0.01455855
H        1.82862805       1.58836178      -1.05299965      -0.00061633       0.01590971       0.00848976
H        2.71436356       0.30804865      -3.35715081      -0.00022366      -0.00656307      -0.00275464
H        1.04337913      -2.28334041      -3.57396285      -0.01018218       0.00323665       0.01217167
H       -1.90747954      -1.45613565      -3.65357297      -0.00059542      -0.00216449       0.01302450
H        0.18345436       0.19544113      -5.15485826      -0.00669143      -0.00803396       0.01755120
H        0.80822657       2.65577791      -3.30071942       0.00022148       0.00004807       0.00064077
H       -0.66305109       2.27033689      -1.12061077      -0.01225248       0.01187975       0.01369644
H        2.27573323      -1.28182405      -1.03152536      -0.01623238       0.02018327       0.01793860
H       -0.67746106      -2.51254618      -1.17735288       0.00020346      -0.00141217       0.02480020
H       -2.53565538       0.10900663      -1.12903219      -0.02764541       0.00154871       0.03667302
H       -1.99089720       1.63348498      -3.45946037       0.00710268      -0.00546552       0.01148116
