45
Properties=species:S:1:pos:R:3:forces:R:3 charge=-1 spin=1 energy=-242.27587890625 free_energy=-242.27587890625 stress="-7.762494647067797e-08 1.0425543983672014e-08 -5.4059981380305544e-08 1.0425543983672014e-08 -8.548148855425097e-08 9.03514134620309e-08 -5.4059981380305544e-08 9.03514134620309e-08 -1.7288313358676533e-07" pbc="F F F"
C        1.42541338      -0.17633690       1.55400000       0.23376760       0.01777691       0.30362549
B        1.37497290       0.64821146       3.03111793      -0.00021433      -0.00037191      -0.00000252
B       -0.26689134       1.30036948       3.08529082      -0.00183403       0.00102550      -0.00104517
B       -1.38790860      -0.08876018       3.05665604      -0.00223735      -0.00094089      -0.00207575
B        0.14895203      -0.20273656       3.97298535       0.00018067      -0.00136054       0.00067253
B        1.27549136      -1.10357080       3.02550429      -0.00242632      -0.00035325       0.00077944
C        0.43799332      -1.42793972       1.56400000      -0.05692571      -0.08427796       0.01130044
B        0.61526008       1.30112351       1.55247774      -0.00160682      -0.00258172      -0.00137246
B       -1.12520202       0.88154444       1.58881605      -0.00268942      -0.00139433       0.00158544
B       -1.15639364      -0.91570631       1.48391557      -0.00256559      -0.00029805       0.00324583
B       -0.41183456      -1.56260867       3.01199227       0.00160304      -0.00001427       0.00017830
C        1.14300000       0.92400000      -1.55300000       0.11060879       0.04663023      -0.18032375
B        1.61864968       0.20143694      -3.00041844      -0.00048339       0.00054987       0.00160731
B        0.67824862      -1.29268718      -3.04783295      -0.00092709      -0.00174706       0.00184990
B       -1.04729617      -0.83805941      -3.07768261      -0.00293829      -0.00070439       0.00318221
B        0.14751723       0.15480596      -3.97092354      -0.00003901       0.00072274       0.00004392
B        0.50422164       1.55499784      -3.02766521      -0.00185888      -0.00119246      -0.00104676
C       -0.40000000       1.32300000      -1.56800000      -0.16545817       0.29608202      -0.22190621
B        1.34473857      -0.74163428      -1.50500885      -0.00160393       0.00136123       0.00247706
B       -0.30188193      -1.43951467      -1.57992800      -0.00287200      -0.00100780      -0.00044611
B       -1.40448547      -0.02073305      -1.52928044      -0.00292039      -0.00316373      -0.00445980
B       -1.12987660       0.92719584      -3.04510621       0.00132803       0.00114869       0.00024893
Co       0.00000000       0.00000000       0.00000000      -0.08049787      -0.26079336       0.07125211
H        2.39953304      -0.29080468       1.06865851      -0.00731350      -0.00054131       0.00487525
H        2.36391526       1.17188928       3.44217724      -0.00014035       0.00106400      -0.00063524
H       -0.51583587       2.31087212       3.66943553      -0.00076856       0.00194198      -0.00087126
H       -2.44667503      -0.07443127       3.60846330      -0.00135425       0.00014814      -0.00076377
H        0.15613539      -0.22421246       5.16300976      -0.00044886       0.00117582       0.00069118
H        2.16795605      -1.82097877       3.33968589      -0.00163260       0.00140636       0.00075106
H        0.74469682      -2.33619264       1.03723611      -0.00296530       0.00207669       0.00209709
H        1.14402085       2.27673735       1.10334849       0.00000768       0.00017739      -0.00056763
H       -1.99893234       1.58699418       1.17454474       0.00084884      -0.00164110      -0.00063848
H       -1.99185847      -1.63468921       1.02183504      -0.00070775       0.00109545      -0.00010011
H       -0.74542515      -2.64043607       3.39709005       0.00000603       0.00139892       0.00043458
H        1.84738537       1.59615085      -1.05371145       0.00005850       0.00005039       0.00160921
H        2.73466204       0.35090723      -3.39148623      -0.00000811      -0.00131605       0.00078769
H        1.09062258      -2.26318454      -3.60637043       0.00088518      -0.00258203       0.00283056
H       -1.87321741      -1.48268435      -3.65026662      -0.00081813      -0.00217342       0.00219597
H        0.16951990       0.16431436      -5.16086933      -0.00033921      -0.00243681       0.00008157
H        0.79735856       2.66100921      -3.34485516      -0.00068520      -0.00192660      -0.00123104
H       -0.70463434       2.25318415      -1.07702519      -0.00176489      -0.00037747      -0.00076981
H        2.32821347      -1.20933961      -1.01070439       0.00006173      -0.00063649      -0.00191512
H       -0.58927316      -2.51346545      -1.13876028      -0.00046477       0.00096622       0.00164820
H       -2.51940509       0.06775826      -1.10574094      -0.00011672      -0.00098751       0.00055820
H       -2.01989415       1.60575352      -3.45581787       0.00027123      -0.00197801      -0.00043839
