45
Properties=species:S:1:pos:R:3:forces:R:3 charge=-1 spin=1 energy=-242.27740478515625 free_energy=-242.27740478515625 stress="-7.089224141054729e-08 1.0673484318601822e-08 -5.7477929971128106e-08 1.0673484318601822e-08 -9.288106639360194e-08 8.023403097467963e-08 -5.7477929971128106e-08 8.023403097467963e-08 -1.7079526060115313e-07" pbc="F F F"
C        1.43092718       0.12387659       1.55400000       0.21399547       0.06513481       0.29900959
B        1.20880193       0.92145627       3.02808839      -0.00432777       0.00321615       0.00420316
B       -0.53318382       1.21679975       3.08200960      -0.00133044      -0.00289546      -0.00181448
B       -1.33994306      -0.37682761       3.05561787       0.00115520       0.00187256      -0.00043064
B        0.18597294      -0.16629541       3.97219271      -0.00175978       0.00188940      -0.00315627
B        1.47578346      -0.81302224       3.02536761      -0.00108390       0.00060946       0.00318082
C        0.72530748      -1.30567188       1.56400000      -0.01590177      -0.09330430       0.02863091
B        0.33030503       1.39906428       1.54994288      -0.00613862       0.00452107      -0.00004694
B       -1.28538707       0.62444115       1.58489618      -0.00042313      -0.00362246       0.00246568
B       -0.94017334      -1.13875870       1.48074358       0.00207768       0.00070179       0.00146626
B       -0.07837195      -1.61396179       3.01254663      -0.00045908       0.00211182       0.00155741
C        1.14300000       0.92400000      -1.55300000       0.10098372       0.03167731      -0.16798896
B        1.61878804       0.19961213      -2.99665547      -0.00126284      -0.00669030      -0.00536143
B        0.67685890      -1.29451071      -3.04383910      -0.00347514       0.00060050       0.00136647
B       -1.04949790      -0.83825272      -3.07543674       0.00171414       0.00024256       0.00109810
B        0.14670960       0.15200445      -3.96920042      -0.00105931      -0.00263392       0.00279409
B        0.50429840       1.55326279      -3.02707940      -0.00221001      -0.00177167      -0.00421587
C       -0.40000000       1.32300000      -1.56800000      -0.15213272       0.31848747      -0.22633050
B        1.34240305      -0.74227854      -1.50285413       0.00007012      -0.00704555       0.00161679
B       -0.30611859      -1.43932819      -1.57520291      -0.00163049       0.00562003      -0.00412917
B       -1.40594609      -0.01865031      -1.52447623      -0.00161636       0.00058448      -0.00028010
B       -1.13043785       0.92609284      -3.04482062       0.00060167      -0.00213535      -0.00176811
Co       0.00000000       0.00000000       0.00000000      -0.10064769      -0.30737472       0.07125986
H        2.40875746       0.21519123       1.07000318      -0.00818181      -0.00257166       0.00054834
H        2.06671871       1.63930332       3.44020522      -0.00033692       0.00248362      -0.00186598
H       -0.98679574       2.15364242       3.66624766      -0.00082183      -0.00147191      -0.00491433
H       -2.37918916      -0.58181530       3.60676067       0.00044519      -0.00049532      -0.00145326
H        0.19753041      -0.18454561       5.16228741      -0.00092772       0.00231663      -0.00293088
H        2.49737822      -1.32924761       3.34072158       0.00039086       0.00125860       0.00040475
H        1.21763776      -2.13000000       1.04064605       0.00285645      -0.00131117      -0.00183628
H        0.63931667       2.45887372       1.08552603      -0.00426679       0.00109793      -0.00178345
H       -2.29100211       1.12577974       1.17427258      -0.00436650      -0.00394209      -0.00149953
H       -1.60395809      -2.02041975       1.02292654      -0.00286349      -0.00438645       0.00238439
H       -0.18137553      -2.73718070       3.39825636       0.00086034       0.00024280       0.00091776
H        1.84764309       1.59464223      -1.05099361      -0.00053099      -0.00066621      -0.00574769
H        2.73438645       0.34825635      -3.38905342       0.00160131      -0.00189336       0.00175013
H        1.09010803      -2.26550684      -3.60122696      -0.00230350       0.00037588       0.00368620
H       -1.87480314      -1.48514624      -3.64643450      -0.00056463       0.00119409       0.00200493
H        0.16916876       0.15977799      -5.15915873       0.00082424      -0.00211621       0.00267079
H        0.79656656       2.65883051      -3.34624854       0.00099445      -0.00097767      -0.00033441
H       -0.70158105       2.25520695      -1.07923903       0.00077362       0.00274261      -0.00050887
H        2.32068109      -1.21250027      -0.99954383      -0.00328305       0.00158069       0.00830197
H       -0.60163401      -2.51361270      -1.14255929      -0.00548106      -0.00552820      -0.00468180
H       -2.52090190       0.07697831      -1.10249934      -0.00074540       0.00226795       0.00201699
H       -2.02093933       1.60321169      -3.45664416       0.00078844       0.00000401      -0.00025618
