45
Properties=species:S:1:pos:R:3:forces:R:3 charge=-1 spin=1 energy=-242.29579162597656 free_energy=-242.29579162597656 stress="-7.853975603211438e-08 8.699301723424924e-09 6.763776383422737e-08 8.699301723424924e-09 -4.50112480621101e-08 4.9843588811882e-08 6.763776383422737e-08 4.9843588811882e-08 -2.3499512735725148e-07" pbc="F F F"
C       -1.43069912       0.12648327       1.55400000      -0.24318109      -0.04764935       0.23020351
B       -1.34801197      -0.71476240       3.02297167      -0.00263267       0.00442203      -0.00037232
B        0.31944060      -1.29174568       3.07616252      -0.00373785       0.00040799       0.00070198
B        1.38050372       0.14390293       3.07357221      -0.00126073      -0.00063854       0.00234279
B       -0.16876855       0.17502752       3.97489309      -0.00352906      -0.00080164       0.00217733
B       -1.32546278       1.03426953       3.02331660      -0.00286277      -0.00012015      -0.00202149
C       -0.48756088       1.41178411       1.56400000       0.03448239       0.03117873       0.16869172
B       -0.54692397      -1.30410390       1.50968133       0.00147116      -0.00211188      -0.00393290
B        1.17212787      -0.81003109       1.58641188       0.00140956      -0.00146303       0.00503467
B        1.13273608       0.98398225       1.53351362       0.00160320      -0.00226253      -0.00004548
B        0.34283725       1.56955648       3.02323950      -0.00462355       0.00215892      -0.00066774
C        1.14300000       0.92400000      -1.55300000       0.12345383      -0.02522880      -0.16896726
B        1.61646802       0.16652917      -2.98754919       0.00034240       0.00284864       0.00115293
B        0.66167672      -1.31937279      -3.00983774       0.00473943       0.00317211      -0.00159613
B       -1.06034581      -0.85379843      -3.06040520       0.00173903       0.00108260      -0.00198513
B        0.15354915       0.11109960      -3.95871375       0.00369086       0.00000302      -0.00096754
B        0.51751694       1.52431209      -3.03680495       0.00319111       0.00030420       0.00106283
C       -0.40000000       1.32300000      -1.56800000      -0.13785790       0.21050744      -0.32137060
B        1.31774213      -0.74307059      -1.44433627      -0.00219107      -0.00272644       0.00534066
B       -0.33620586      -1.43154230      -1.53747597       0.00068416      -0.00308961      -0.00375180
B       -1.42984816      -0.00947065      -1.55099776       0.00086230       0.00052984      -0.00153702
B       -1.12504690       0.91070747      -3.04345003       0.00029147       0.00281943       0.00059734
Co       0.00000000       0.00000000       0.00000000       0.23641756      -0.19832563       0.08519579
H       -2.40134173       0.19081166       1.05433957       0.00333429       0.00115091       0.00309233
H       -2.31159061      -1.29490843       3.41726638       0.00008723       0.00269802       0.00029628
H        0.60784402      -2.30593190       3.63591101      -0.00214698       0.00293663       0.00403757
H        2.43132574       0.16058192       3.63825946      -0.00043246       0.00183496       0.00385818
H       -0.18381490       0.18572895       5.16449910      -0.00326328       0.00360762       0.00333844
H       -2.24730117       1.71227331       3.33906629      -0.00092250       0.00072026      -0.00297126
H       -0.84299123       2.32143821       1.07113589      -0.00024347      -0.00123861      -0.00041879
H       -1.03987248      -2.30625524       1.08478964      -0.00000703       0.00107495       0.00318109
H        2.08515881      -1.48487702       1.21394825      -0.00435077       0.00079903       0.00444905
H        1.94564058       1.73042327       1.07419430       0.00199571      -0.00082985       0.00032455
H        0.61116076       2.65743987       3.42849758      -0.00139216       0.00148109      -0.00045542
H        1.85333665       1.58585154      -1.05209529      -0.00365137       0.00142993      -0.00053035
H        2.73841571       0.28895734      -3.37008992      -0.00119051       0.00131133      -0.00089093
H        1.07622852      -2.30864841      -3.53367798       0.00001794       0.00186695      -0.00255058
H       -1.88114298      -1.50545644      -3.63081158       0.00045095       0.00089453      -0.00220685
H        0.17833623       0.10035489      -5.14829826       0.00059732       0.00261783      -0.00200637
H        0.81682369       2.62232211      -3.37437759       0.00045434       0.00025848       0.00202695
H       -0.69470491       2.27601419      -1.11779111       0.00079902      -0.00024291      -0.00053030
H        2.31528310      -1.21318075      -0.98721228      -0.00495328       0.00382532      -0.00134866
H       -0.63534701      -2.51206898      -1.12427788       0.00318685      -0.00082114      -0.00356781
H       -2.54010108       0.08402948      -1.11469067      -0.00062599      -0.00220165      -0.00205441
H       -1.99807584       1.59707716      -3.47549771      -0.00024524       0.00180955      -0.00035912
