45
Properties=species:S:1:pos:R:3:forces:R:3 charge=-1 spin=1 energy=-242.2914276123047 free_energy=-242.2914276123047 stress="-8.483379332346885e-08 1.5789574092650582e-08 6.699316656977317e-08 1.5789574092650582e-08 -5.3712497560809425e-08 4.3936882576645075e-08 6.699316656977317e-08 4.3936882576645075e-08 -2.354791064362871e-07" pbc="F F F"
C       -1.40964050       0.27533916       1.55400000      -0.24080099      -0.03041628       0.23256503
B       -1.41389713      -0.57081880       3.02125924      -0.00001474       0.00082553      -0.00103690
B        0.18406967      -1.31968707       3.07273936      -0.00128601       0.00271833       0.00341015
B        1.38972214      -0.00283036       3.07114036      -0.00377385       0.00248183       0.00382911
B       -0.14739832       0.18928250       3.97359432      -0.00187815       0.00328431       0.00025149
B       -1.20834919       1.16592438       3.02337714       0.00021541      -0.00012891      -0.00140005
C       -0.33731835       1.45501420       1.56400000       0.03452504       0.03350641       0.17168061
B       -0.67933984      -1.24086319       1.50755942       0.00069660      -0.00124799       0.00740485
B        1.08165142      -0.92769816       1.58372636      -0.00636426      -0.00144908      -0.00510669
B        1.22983542       0.86166658       1.53204714       0.00169754       0.00287169       0.00325909
B        0.50641612       1.52392074       3.02264716      -0.00214029      -0.00070392      -0.00008874
C        1.14300000       0.92400000      -1.55300000       0.11652447      -0.02659383      -0.17300175
B        1.61587358       0.16594845      -2.98616148      -0.00080881       0.00031923       0.00095605
B        0.66142108      -1.32013625      -3.00780344      -0.00105257       0.00092216      -0.00160663
B       -1.06121280      -0.85469000      -3.05867927       0.00195263       0.00195138      -0.00271959
B        0.15293771       0.10944654      -3.95762368      -0.00014294       0.00252279      -0.00036600
B        0.51654629       1.52319028      -3.03650433      -0.00026915      -0.00107020       0.00088629
C       -0.40000000       1.32300000      -1.56800000      -0.13814345       0.22119443      -0.32031745
B        1.31605582      -0.74419774      -1.44288006       0.00474340      -0.00403265      -0.00723094
B       -0.33743450      -1.43194197      -1.53573509       0.00585149       0.00524178       0.00463773
B       -1.43105060      -0.00799360      -1.54985601      -0.00178921      -0.00020540      -0.00084600
B       -1.12626350       0.90975098      -3.04276906       0.00344951      -0.00002678       0.00023763
Co       0.00000000       0.00000000       0.00000000       0.22563499      -0.20287192       0.08100161
H       -2.36963222       0.44153415       1.05714295       0.00018407      -0.00353123      -0.00175560
H       -2.43268290      -1.04626989       3.41640626      -0.00227110      -0.00002866       0.00090812
H        0.36509223      -2.35806602       3.63303594      -0.00152492       0.00010690       0.00296522
H        2.43735804      -0.09725458       3.63430185      -0.00156331       0.00267731       0.00466564
H       -0.16092962       0.20154389       5.16327487      -0.00227534       0.00214280       0.00042312
H       -2.05364260       1.93671394       3.34007294      -0.00250202       0.00131319      -0.00073716
H       -0.59713655       2.39743135       1.07291338       0.00022831       0.00050239       0.00072454
H       -1.27190204      -2.18529351       1.07737774      -0.00257908      -0.00412199      -0.00063677
H        1.91926889      -1.68886488       1.20082190       0.00411066      -0.00373038      -0.00174569
H        2.11521499       1.51932683       1.07077807      -0.00141766      -0.00116244       0.00224362
H        0.88805958       2.57709776       3.42868975      -0.00242907       0.00185862      -0.00013909
H        1.85333862       1.58715402      -1.05380602       0.00322582      -0.00218367      -0.00135104
H        2.73720973       0.28930073      -3.36979605       0.00188172      -0.00014983      -0.00037515
H        1.07547833      -2.30911035      -3.53249962       0.00138164      -0.00049351      -0.00130302
H       -1.88194260      -1.50748000      -3.62795021      -0.00012776       0.00131669      -0.00380663
H        0.17756764       0.09935691      -5.14721968       0.00076383       0.00081528      -0.00071518
H        0.81495023       2.62125089      -3.37437440       0.00182911       0.00140640      -0.00036451
H       -0.69367808       2.27725300      -1.11959007      -0.00044985       0.00002296      -0.00032835
H        2.31105302      -1.21344709      -0.97978284       0.00471129      -0.00391822       0.00576723
H       -0.63981658      -2.50898679      -1.11558325      -0.00029429      -0.00472853       0.00050179
H       -2.53941414       0.08597514      -1.10877895       0.00054381       0.00126784      -0.00101697
H       -1.99970647       1.59548454      -3.47520869       0.00174770       0.00152473      -0.00032283
