45
Properties=species:S:1:pos:R:3:forces:R:3 charge=-1 spin=1 energy=-242.2322998046875 free_energy=-242.2322998046875 stress="-1.489004208821143e-08 5.094233479496779e-09 -8.70609717651405e-09 5.094233479496779e-09 8.756248348618101e-08 1.4067034648235222e-08 -8.70609717651405e-09 1.4067034648235222e-08 4.185902113817974e-08" pbc="F F F"
C       -0.53267616       1.37323311       1.58622518      -0.02154264       0.00521642       0.00670859
B       -1.23891076       0.94196830       3.04481866      -0.01798369       0.00593689       0.00725638
B       -1.02018573      -0.80880955       3.12056741      -0.00503290      -0.00610033       0.00532851
B        0.72977966      -1.13209497       3.12219372       0.00724258       0.00006846      -0.00307101
B        0.08578130       0.28911228       4.00433155       0.00319764      -0.00278808       0.00958832
B        0.34601166       1.69062704       3.02376111       0.00422978       0.00518352       0.02528851
C        1.04649495       1.08304205       1.58696786       0.01944012      -0.03481457       0.00965321
B       -1.41145492      -0.05724847       1.55036337      -0.00600564       0.01415320      -0.01291782
B       -0.21431714      -1.38930636       1.63600000      -0.02975896       0.15331629      -0.17711309
B        1.35801905      -0.56388871       1.55017774       0.01797351       0.01320546      -0.01368333
B        1.55732531       0.42419444       3.04368162       0.00707044       0.00879899      -0.00078086
C        1.14377080       0.95682818      -1.58587326       0.02941186      -0.01515201      -0.01782447
B        1.62225412       0.24463227      -3.02812162       0.01707757       0.00878419       0.00345173
B        0.69476978      -1.25428477      -3.09233600       0.00352526      -0.00679779      -0.00063278
B       -1.02936278      -0.81802555      -3.11578218      -0.00696394      -0.00228529       0.00185646
B        0.15642646       0.19398449      -4.00172350      -0.00532964      -0.00249531      -0.00982608
B        0.49979236       1.58946027      -3.03862275      -0.00268680       0.00916442      -0.01747682
C       -0.41663532       1.35485660      -1.60905770       0.00288409       0.00053582      -0.00704527
B        1.33834789      -0.70637921      -1.51563326       0.01224911       0.02745129       0.01037379
B       -0.27500000      -1.43300000      -1.61500000      -0.03954588       0.22808751       0.18661541
B       -1.38848537      -0.01779771      -1.56584121      -0.01505682       0.00360316       0.00317365
B       -1.13384825       0.94583585      -3.06628967      -0.01158676       0.00471635      -0.00778668
Co       0.00000000       0.00000000       0.00000000       0.17206416      -0.28067619       0.00152130
H       -0.89979539       2.27136163       1.08129411      -0.00670764      -0.00384817       0.00101963
H       -2.17935954       1.56016778       3.43953297       0.00765106      -0.01551816       0.00212528
H       -1.80234246      -1.49729749       3.70284210      -0.00566426      -0.00955620      -0.00295314
H        1.21905833      -2.05349152       3.70298104      -0.00658055      -0.00231443      -0.00225091
H        0.09442528       0.34233837       5.19302921      -0.00087436      -0.01343293       0.00015029
H        0.55850248       2.82127978       3.31710027      -0.00751041      -0.00145915       0.01735224
H        1.70871515       1.79096252       1.08112388       0.00149696      -0.00955278      -0.00131920
H       -2.52612580      -0.06975951       1.12016682       0.00053373      -0.00234896       0.00426926
H       -0.41906256      -2.49899252       1.24537209      -0.00619352      -0.02107327      -0.02372510
H        2.39570589      -0.97787593       1.12989616      -0.00160450       0.02061034       0.00193445
H        2.65809281       0.66151788       3.43662302      -0.01818642      -0.00372182       0.00280713
H        1.84986623       1.62489902      -1.08416608      -0.02330193      -0.01021139      -0.00408557
H        2.74017421       0.40233972      -3.41372550      -0.02353176      -0.00749666       0.00511372
H        1.12592530      -2.21143529      -3.66097816       0.00129842      -0.00801364       0.00757358
H       -1.85117701      -1.45969543      -3.69734030       0.00159550      -0.00843049       0.00349279
H        0.18098738       0.23182206      -5.19072969      -0.00373882      -0.01689018      -0.00245038
H        0.78879817       2.69975719      -3.34516687      -0.00611117      -0.00919703      -0.02043812
H       -0.72427413       2.28497703      -1.12319716      -0.02913824       0.00447454      -0.00788903
H        2.34738846      -1.17511527      -1.08548071      -0.00148663       0.00193844       0.01264916
H       -0.55927237      -2.51671424      -1.20307898      -0.00494773      -0.01425433       0.02549931
H       -2.50475728       0.04156659      -1.14371838      -0.00330589       0.00498615      -0.01049264
H       -2.02738658       1.61815170      -3.47996285       0.00143664      -0.01180239      -0.01104012
