45
Properties=species:S:1:pos:R:3:forces:R:3 charge=-1 spin=1 energy=-54314.51858045357 free_energy=-54314.51858045357 stress="1.016040325164795 0.14692161977291107 0.015019173733890057 0.14692161977291107 1.076751947402954 -1.4884432554244995 0.015019173733890057 -1.4884432554244995 1.6212372779846191" pbc="F F F"
C        1.38700000      -0.37300000       1.55400000      -0.34129506       0.13256596       0.07352249
B        1.43626605       0.47984536       3.01897725       0.00066433       0.00020544       0.00181711
B       -0.11351436       1.33703319       3.09653100      -0.00089722       0.00042748      -0.00101155
B       -1.40384932       0.12171937       3.06490156       0.00008906       0.00136872      -0.00128636
B        0.10562591      -0.19735407       3.97452039       0.00242159       0.00110546      -0.00104321
B        1.12000919      -1.25638500       2.96905867      -0.00100051      -0.00036696       0.00070591
C        0.23500000      -1.47500000       1.56400000       0.02627531       0.52959239      -0.59808666
B        0.75471036       1.21049308       1.55718280      -0.00090619      -0.00223267      -0.00218349
B       -1.01761531       1.02386106       1.57753143      -0.00224454      -0.00391583      -0.00344518
B       -1.29924236      -0.74147762       1.49755304      -0.00274085       0.00472435      -0.00152495
B       -0.64287525      -1.46802223       2.99468811       0.00375697       0.00124682       0.00484293
C        1.14300000       0.92400000      -1.55300000      -0.41996673      -0.36751944       0.15869394
B        1.61115401       0.17046459      -2.98957362       0.00072252      -0.00059261      -0.00214645
B        0.64250099      -1.31054054      -3.06697996      -0.00004497      -0.00086526       0.00147620
B       -1.06730174      -0.84656934      -3.09163059       0.00055861      -0.00116374       0.00119503
B        0.13864086       0.13631202      -3.97731330       0.00194292       0.00016153       0.00094699
B        0.51253388       1.55468659      -2.97459589      -0.00115767       0.00013545      -0.00071978
C       -0.40000000       1.32300000      -1.56800000       0.10774959       0.09762344       0.40615329
B        1.30454373      -0.76616506      -1.51391728      -0.00173182       0.00188718       0.00157963
B       -0.34284281      -1.43669500      -1.57303887      -0.00529443       0.00282639       0.00315315
B       -1.43156544      -0.02387447      -1.54618866      -0.00029114      -0.00577860       0.00251503
B       -1.13973084       0.91485983      -3.03168563       0.00512505       0.00052398      -0.00607867
Co       0.00000000       0.00000000       0.00000000       0.63543230      -0.39073586      -0.03734735
H        2.31212319      -0.63853242       1.07178902      -0.00253487      -0.00332446      -0.00106416
H        2.48504342       0.84687144       3.42730882       0.00047315       0.00036637       0.00490320
H       -0.20132049       2.37466303       3.66249690      -0.00047603       0.00033077       0.00126021
H       -2.44174236       0.26228239       3.61970600       0.00105381      -0.00087626       0.00035103
H        0.15204273      -0.26682030       5.15757901      -0.00071898       0.00096991      -0.00215368
H        1.89645497      -2.08630288       3.29320719      -0.00170302       0.00118180       0.00313783
H        0.43654487      -2.39826806       1.04662406       0.00016301       0.00197407       0.00114162
H        1.40018806       2.11093228       1.11877288      -0.00035957      -0.00124699       0.00054540
H       -1.79006932       1.84519448       1.19516229      -0.00015672      -0.00106607       0.00153443
H       -2.21964936      -1.33038481       1.04204599      -0.00072990       0.00027846       0.00075017
H       -1.08594244      -2.49330527       3.38513165       0.00097505       0.00109696       0.00373938
H        1.81557232       1.59687316      -1.04929003      -0.00346650       0.00152684      -0.00048279
H        2.71927291       0.33050250      -3.37404522       0.00049788      -0.00009231      -0.00528396
H        1.06766171      -2.27730345      -3.60487327      -0.00046693      -0.00054001      -0.00174076
H       -1.90092311      -1.46484362      -3.66382450       0.00014118       0.00115448      -0.00021403
H        0.17449666       0.20995619      -5.16045195      -0.00031139      -0.00125608       0.00203161
H        0.79837530       2.65512356      -3.29652738      -0.00064702      -0.00150921      -0.00337421
H       -0.66968425       2.25132436      -1.09029907       0.00167589      -0.00073711      -0.00183865
H        2.27979238      -1.26186817      -1.04326760      -0.00153609       0.00123109       0.00011592
H       -0.64284418      -2.52053052      -1.18274769      -0.00026323       0.00098422      -0.00109640
H       -2.53206816       0.07584591      -1.12230735      -0.00072924      -0.00050355      -0.00047418
H       -1.99611959       1.61880543      -3.44503626       0.00195245      -0.00116654      -0.00351595
