45
Properties=species:S:1:pos:R:3:forces:R:3 charge=-1 spin=1 energy=-242.225830078125 free_energy=-242.225830078125 stress="-4.2957786661190767e-08 2.7614770914397013e-08 -2.640164176170856e-08 2.7614770914397013e-08 -9.634229058974597e-08 2.3931814752131686e-08 -2.640164176170856e-08 2.3931814752131686e-08 -2.1219116774773283e-07" pbc="F F F"
C        0.37300000       1.38700000       1.55400000      -0.03579754       0.21458383       0.25774068
B       -0.47108477       1.44355556       3.01809629       0.00107810       0.00073262      -0.00001715
B       -1.33741200      -0.09376946       3.06241564       0.00061992       0.00005983      -0.00023590
B       -0.11276719      -1.39278627       3.04875197      -0.00026240       0.00011313      -0.00013958
B        0.19569838       0.11323869       3.96463007       0.00021286      -0.00047220       0.00061301
B        1.24960853       1.10732199       3.02374685       0.00006584      -0.00004835       0.00096835
C        1.47500000       0.23500000       1.56400000       0.06474981      -0.07942763       0.13143443
B       -1.20340220       0.78772468       1.53369547      -0.00075260      -0.00030598       0.00067727
B       -1.01162118      -1.00078737       1.55362142      -0.00103870      -0.00005561       0.00016287
B        0.75647038      -1.28319089       1.49375968      -0.00042397      -0.00041611      -0.00095020
B        1.47716711      -0.62641307       3.01247864       0.00017644       0.00100983       0.00091471
C        1.14300000       0.92400000      -1.55300000       0.10456742      -0.03280929      -0.20092186
B        1.61107277       0.17517532      -2.98996711      -0.00022955       0.00099074      -0.00114089
B        0.66369472      -1.31371899      -3.01786563      -0.00060579      -0.00004546       0.00003261
B       -1.06122647      -0.85365993      -3.05362253       0.00067139      -0.00093344       0.00094897
B        0.13750699       0.11946230      -3.95718277       0.00086479      -0.00138561      -0.00019245
B        0.50169271       1.53041897      -3.02974784      -0.00088936       0.00021413      -0.00084589
C       -0.40000000       1.32300000      -1.56800000      -0.18125723       0.26869136      -0.26353842
B        1.34468312      -0.74393432      -1.48771121      -0.00000781      -0.00079529       0.00033809
B       -0.32180975      -1.43015067      -1.53072909      -0.00039057      -0.00028145      -0.00005226
B       -1.41931118      -0.01862017      -1.52082768      -0.00058421      -0.00122334      -0.00030327
B       -1.13529610       0.90917357      -3.03621593       0.00056019       0.00067890      -0.00136590
Co       0.00000000       0.00000000       0.00000000       0.05047387      -0.36892074       0.07428033
H        0.61749169       2.34235692       1.07744837      -0.00010839      -0.00039206       0.00058536
H       -0.85756026       2.49338841       3.42937895      -0.00082581      -0.00052199      -0.00060509
H       -2.38123474      -0.20782386       3.63007789       0.00090511      -0.00042029      -0.00048453
H       -0.28248586      -2.43887262       3.59840991      -0.00025246       0.00065885       0.00046357
H        0.20818545       0.11899479       5.15424409       0.00017760       0.00006310       0.00030872
H        2.07890134       1.89218777       3.34900791      -0.00086653       0.00052543      -0.00070646
H        2.43038899       0.41473360       1.06255313       0.00087112       0.00081609       0.00027175
H       -2.09004155       1.43515145       1.05887801       0.00023979      -0.00057594      -0.00018528
H       -1.83161167      -1.78400135       1.17201985      -0.00087629      -0.00019948       0.00042639
H        1.36352622      -2.20526112       1.03856802      -0.00034912      -0.00051207       0.00045291
H        2.49654155      -1.09537893       3.41383887      -0.00041454       0.00017259      -0.00059232
H        1.85695784       1.59784910      -1.06897141       0.00017494       0.00060157       0.00007910
H        2.72487159       0.31658488      -3.38952292      -0.00015974      -0.00016068       0.00046875
H        1.06923786      -2.29763400      -3.55818739      -0.00044297       0.00027636       0.00039959
H       -1.88687912      -1.50788401      -3.61532035       0.00096667      -0.00005089       0.00027685
H        0.15816308       0.11539846      -5.14672039       0.00013231      -0.00018334       0.00018147
H        0.79659039       2.63038097      -3.36533285      -0.00036736      -0.00014946       0.00037688
H       -0.70531358       2.26469231      -1.09986260       0.00048552       0.00047198      -0.00036659
H        2.32200351      -1.20784009      -0.98164416       0.00008797      -0.00049327      -0.00029323
H       -0.61678661      -2.51651623      -1.12711449      -0.00076101       0.00019822      -0.00008079
H       -2.52843062       0.08750033      -1.08725386       0.00006321       0.00011978       0.00011063
H       -2.01800931       1.58900807      -3.45924438      -0.00048117      -0.00019845       0.00050470
