45
Properties=species:S:1:pos:R:3:forces:R:3 charge=-1 spin=1 energy=-54314.45921232003 free_energy=-54314.45921232003 stress="0.9078741073608398 0.24386924505233765 -0.23527489602565765 0.24386924505233765 0.8985188007354736 -1.213161587715149 -0.23527489602565765 -1.213161587715149 1.4585449695587158" pbc="F F F"
C        1.25556331      -0.69746598       1.55400000      -0.28341249       0.12867416       0.05020403
B        1.51791380       0.10716185       3.02245789      -0.00122209      -0.00014037       0.00191393
B        0.22225856       1.31233456       3.11326710      -0.00163350       0.00094987      -0.00115074
B       -1.32145987       0.44454092       3.08849901       0.00069410       0.00052840      -0.00253267
B        0.07116912      -0.23393926       3.98576315      -0.00216061      -0.00089669      -0.00185665
B        0.79178368      -1.50040797       2.96673936      -0.00341106       0.00057305       0.00147457
C       -0.12881530      -1.48803784       1.56400000       0.16346914       0.47379878      -0.48574844
B        1.02647331       0.98768061       1.56704573       0.00271079       0.00466170      -0.00376868
B       -0.73859159       1.23181132       1.59856367       0.00014451      -0.00181471      -0.00063233
B       -1.43787473      -0.41169122       1.51914817      -0.00307864      -0.00019898       0.00139383
B       -0.96766225      -1.28119309       3.00729944       0.00316814       0.00167181       0.00100193
C        1.14300000       0.92400000      -1.55300000      -0.39902338      -0.26101857       0.18938762
B        1.61896804       0.18387043      -2.99246033      -0.00096425      -0.00025351      -0.00128331
B        0.65403651      -1.29726940      -3.08271450      -0.00105227      -0.00132697       0.00075617
B       -1.05419813      -0.83419421      -3.11529945       0.00016238      -0.00005316       0.00205027
B        0.15398269       0.15488567      -3.98841004      -0.00321357       0.00076102       0.00147506
B        0.51897506       1.56653119      -2.97259545      -0.00299366      -0.00098687      -0.00143195
C       -0.40000000       1.32300000      -1.56800000       0.12570091       0.10489616       0.28069413
B        1.30891738      -0.76059676      -1.52218268       0.00404443      -0.00409055       0.00439979
B       -0.33819510      -1.43025528      -1.59379715      -0.00079298       0.00305854       0.00003556
B       -1.42802636      -0.01973355      -1.56909929      -0.00299779      -0.00108399      -0.00146626
B       -1.12978829       0.92675038      -3.04521650       0.00421008      -0.00015547      -0.00089680
Co       0.00000000       0.00000000       0.00000000       0.41114289      -0.44951832      -0.03243836
H        2.08667347      -1.17582570       1.06677313       0.00022539       0.00095882       0.00401647
H        2.62692499       0.20912777       3.42288050       0.00049612       0.00108083       0.00285218
H        0.39168935       2.33811093       3.68224329      -0.00182603       0.00042360      -0.00027103
H       -2.29172522       0.83026753       3.64949803       0.00036946      -0.00229338      -0.00104754
H        0.10756073      -0.31839846       5.16827337      -0.00146851       0.00058171      -0.00361958
H        1.34824068      -2.49502459       3.27867378      -0.00119274       0.00171658       0.00061003
H       -0.15710071      -2.43272084       1.04829148       0.00122104      -0.00109157      -0.00146545
H        1.87398115       1.70671887       1.14094103      -0.00295080       0.00030174       0.00168496
H       -1.29590532       2.21871890       1.23274309      -0.00269186       0.00081363      -0.00165964
H       -2.47920047      -0.76082673       1.08008626       0.00147523      -0.00068134      -0.00374340
H       -1.64266893      -2.17164631       3.39627263       0.00198239       0.00117120      -0.00044432
H        1.81398791       1.59389305      -1.04509321       0.00044840      -0.00060973      -0.00202115
H        2.72924376       0.34730630      -3.36824323       0.00063609      -0.00056416      -0.00301667
H        1.08350135      -2.26068894      -3.62311033      -0.00209502      -0.00037983      -0.00030742
H       -1.88451586      -1.45168600      -3.69325072      -0.00044114       0.00270744       0.00051535
H        0.19668797       0.23558525      -5.17092223      -0.00135414      -0.00024884       0.00324308
H        0.80755632       2.66938594      -3.28281811      -0.00021786      -0.00130144      -0.00062407
H       -0.67113109       2.25066284      -1.09122769       0.00091549       0.00185040       0.00093861
H        2.28985578      -1.25283073      -1.06267746      -0.00340591      -0.00132494      -0.00347003
H       -0.64230939      -2.51982090      -1.22192912      -0.00273302      -0.00183744       0.00171527
H       -2.53429064       0.07695131      -1.16300738       0.00072351       0.00118849       0.00396254
H       -1.98537951       1.63191774      -3.45792162       0.00239262      -0.00049687       0.00057111
