45
Properties=species:S:1:pos:R:3:forces:R:3 charge=-1 spin=1 energy=-242.2310333251953 free_energy=-242.2310333251953 stress="-2.7800972191016626e-08 -6.451003287111234e-09 -1.7339610636213365e-08 -6.451003287111234e-09 6.96997233262664e-08 2.3248434288802855e-08 -1.7339610636213365e-08 2.3248434288802855e-08 4.7467388242239394e-08" pbc="F F F"
C       -0.85779847       1.19772862       1.58648669      -0.01682469       0.00549757       0.02673012
B       -1.43449895       0.60431011       3.04496328      -0.00663859       0.00014547       0.00696939
B       -0.78701562      -1.03718826       3.12066907      -0.00033654      -0.00302745       0.00529729
B        0.98849179      -0.91497542       3.12207561       0.00558093       0.00361224      -0.00879923
B        0.01124891       0.30135361       4.00442205       0.00239086      -0.00092647       0.00276016
B       -0.08522611       1.72362783       3.02411996       0.00333760      -0.00049401       0.01983635
C        0.74462261       1.30869463       1.58725079       0.02124733      -0.01936772       0.01146922
B       -1.35279166      -0.40630973       1.54985280       0.00990787       0.00973575      -0.03885481
B        0.13792247      -1.39895725       1.63600000      -0.06423585       0.12802881      -0.15781173
B        1.45591565      -0.20813891       1.55040320       0.02240196       0.01811984       0.02352570
B        1.40290862       0.79826429       3.04356098      -0.00337207       0.00323722      -0.00803984
C        1.14426821       0.95670943      -1.58629814       0.02330958      -0.00496215      -0.03394654
B        1.62248694       0.24477779      -3.02811923       0.00443313       0.00742358       0.00083387
B        0.69479817      -1.25435554      -3.09237845       0.00073355      -0.00173299      -0.00139132
B       -1.02946079      -0.81803143      -3.11569234      -0.00554566      -0.00049382       0.00703762
B        0.15634732       0.19396604      -4.00182351      -0.00442709      -0.00172458      -0.00339745
B        0.49972504       1.58958630      -3.03888877      -0.00552396       0.00247048      -0.01581201
C       -0.41661540       1.35474314      -1.60928436      -0.00320326       0.00071737      -0.01362577
B        1.33826801      -0.70595169      -1.51512626      -0.00572264       0.02439165       0.04225367
B       -0.27500000      -1.43300000      -1.61500000      -0.04276609       0.22299546       0.17806597
B       -1.38887295      -0.01767029      -1.56622185      -0.02474168       0.00947596      -0.03484103
B       -1.13396472       0.94586125      -3.06629953      -0.00397739      -0.00195447       0.00153107
Co       0.00000000       0.00000000       0.00000000       0.19472931      -0.27672181      -0.00946669
H       -1.43646931       1.97618020       1.08119679      -0.00824058      -0.00137274      -0.00628676
H       -2.49875175       0.96897475       3.43956570       0.00094807      -0.01095106       0.00553702
H       -1.37341197      -1.89865722       3.70280587      -0.00398669      -0.01242594      -0.00270717
H        1.69135704      -1.68586869       3.70294245      -0.00581843      -0.00396480      -0.00301076
H        0.00635491       0.35487169       5.19303653       0.00234535      -0.01363664       0.00267576
H       -0.16077251       2.87150495       3.31735373      -0.00703569       0.00009772       0.01848567
H        1.20980090       2.15962691       1.08097320       0.00524302      -0.00808158      -0.00038862
H       -2.42948402      -0.69578201       1.12002414      -0.00804438       0.00251846      -0.01514132
H        0.21549498      -2.52514198       1.24509430      -0.00770192      -0.02380278      -0.01196617
H        2.56367839      -0.35113156       1.12955695       0.00808136       0.01453392      -0.03147402
H        2.40984415       1.30167089       3.43667508      -0.01097929      -0.00480980       0.00543511
H        1.84952840       1.62478287      -1.08400878      -0.01386112      -0.00547528       0.01298017
H        2.73987010       0.40222647      -3.41365784      -0.00995478      -0.00657628       0.00064822
H        1.12595441      -2.21158162      -3.66087961       0.00253161      -0.01077311       0.00686597
H       -1.85115311      -1.45981705      -3.69728336       0.00154513      -0.00867540       0.00394572
H        0.18093505       0.23157620      -5.19077078      -0.00362449      -0.01718801      -0.00440387
H        0.78871950       2.69964342      -3.34547198      -0.00455908      -0.00328997      -0.02276984
H       -0.72475287       2.28516089      -1.12330354      -0.02618859       0.00645924      -0.01476541
H        2.34749272      -1.17505093      -1.08485855       0.00650117       0.00847752       0.04709370
H       -0.55930961      -2.51705546      -1.20274449       0.00027160      -0.01879526       0.01713827
H       -2.50492440       0.04161916      -1.14373432      -0.01637674       0.00219749       0.00464211
H       -2.02737411       1.61799246      -3.48013129      -0.00185205      -0.00891118      -0.01285793
