45
Properties=species:S:1:pos:R:3:forces:R:3 charge=-1 spin=1 energy=-54314.4467630555 free_energy=-54314.4467630555 stress="0.7862886786460876 0.26281386613845825 -0.3153626620769501 0.26281386613845825 0.9047995209693909 -1.1077574491500854 -0.3153626620769501 -1.1077574491500854 1.3992880582809448" pbc="F F F"
C        1.17578015      -0.82488729       1.55400000      -0.24479268       0.07451111      -0.00162881
B        1.52767804      -0.05785910       3.02220274       0.00079444       0.00014579       0.00075078
B        0.37058629       1.27944131       3.11734061      -0.00187681       0.00028189      -0.00015161
B       -1.25684824       0.58201951       3.09720596      -0.00108342       0.00004153      -0.00307075
B        0.05591068      -0.24349778       3.98898845       0.00102201       0.00057348      -0.00061972
B        0.63263242      -1.57842212       2.96573300       0.00142730       0.00029181      -0.00009729
C       -0.28365195      -1.46642135       1.56400000       0.17508698       0.50197834      -0.41819453
B        1.13099247       0.87170852       1.56734722       0.00256289       0.00236367      -0.00138323
B       -0.59713093       1.30322852       1.60549104      -0.00105705      -0.00559780       0.00056054
B       -1.46983849      -0.25519794       1.52940966       0.00125405       0.00094918      -0.00205644
B       -1.09168316      -1.17247163       3.01262784       0.00068541       0.00204768      -0.00355502
C        1.14300000       0.92400000      -1.55300000      -0.37983602      -0.16993393       0.24313664
B        1.62549421       0.18855280      -2.99092636       0.00164389       0.00061115      -0.00115523
B        0.66816330      -1.29606832      -3.08301988      -0.00214778      -0.00019868      -0.00052460
B       -1.04124751      -0.83855007      -3.12083785      -0.00172805       0.00054599       0.00275366
B        0.16366470       0.15486863      -3.99014050       0.00153112       0.00040330       0.00064270
B        0.52004621       1.56762801      -2.97260319       0.00187494       0.00019548       0.00024788
C       -0.40000000       1.32300000      -1.56800000       0.10187387       0.03267445       0.19650175
B        1.31706298      -0.75632552      -1.51935935       0.00237576      -0.00203557       0.00130668
B       -0.32700955      -1.43140842      -1.59705816      -0.00242456       0.00630102      -0.00152779
B       -1.42286429      -0.02492534      -1.57790977       0.00137315      -0.00070190       0.00211393
B       -1.12476570       0.92310541      -3.05036564       0.00124957      -0.00156049       0.00435701
Co       0.00000000       0.00000000       0.00000000       0.36186570      -0.44650564      -0.02150099
H        1.94994901      -1.38760721       1.06315682       0.00343227      -0.00215570       0.00303750
H        2.64240693      -0.07722456       3.41901380       0.00075856       0.00190432       0.00159697
H        0.65037515       2.28052391       3.68670758      -0.00204555      -0.00011599      -0.00028140
H       -2.17906759       1.06898748       3.66050480       0.00038469      -0.00187149      -0.00070108
H        0.08639008      -0.33311739       5.17117456      -0.00065292       0.00031008      -0.00069518
H        1.08180188      -2.62672558       3.27417567       0.00049940      -0.00030744       0.00130774
H       -0.41219584      -2.40251219       1.04837574      -0.00052074      -0.00087767      -0.00028870
H        2.05144466       1.49279968       1.13899470      -0.00526046      -0.00106995       0.00358047
H       -1.04667909       2.34552846       1.24497010      -0.00486311       0.00487893      -0.00151494
H       -2.54522696      -0.48708748       1.09658566      -0.00457414      -0.00163216      -0.00329787
H       -1.85752669      -1.98534648       3.40326634       0.00217053       0.00149742      -0.00112014
H        1.81163576       1.59454968      -1.04287513       0.00237957       0.00176355      -0.00184371
H        2.73583340       0.35755004      -3.36365671       0.00193984      -0.00129879      -0.00090806
H        1.10188226      -2.25806779      -3.62252250      -0.00214301       0.00052201      -0.00002171
H       -1.86858463      -1.45911381      -3.69981455      -0.00003246       0.00272648       0.00012607
H        0.20900529       0.23590980      -5.17243334      -0.00021382       0.00076802       0.00078178
H        0.80785602       2.67079194      -3.28192583       0.00102332       0.00108068      -0.00001955
H       -0.67309469       2.25059095      -1.09274054      -0.00028116       0.00005278       0.00065177
H        2.29997257      -1.24086802      -1.05614482      -0.00573813       0.00092291      -0.00461026
H       -0.62769723      -2.52317877      -1.22865300      -0.00439503      -0.00543412       0.00106964
H       -2.53137020       0.06412334      -1.17822984      -0.00635342       0.00145319       0.00417806
H       -1.98226473       1.62408351      -3.46631053       0.00281100      -0.00049850       0.00206721
