45
Properties=species:S:1:pos:R:3:forces:R:3 charge=-1 spin=1 energy=-54314.48391439217 free_energy=-54314.48391439217 stress="-0.1730450838804245 0.12535026669502258 0.020000528544187546 0.12535026669502258 -0.16100168228149414 -0.08551295101642609 0.020000528544187546 -0.08551295101642609 -0.9086920022964478" pbc="F F F"
C        1.26541434      -0.72229181       1.48831503       0.01739367      -0.00404175       0.00078836
B        1.60342300       0.01680281       2.97016775      -0.01137406      -0.00450424      -0.00598713
B        0.35483584       1.26042513       3.13267080       0.00092809      -0.00233829       0.00065789
B       -1.21576450       0.44827114       3.12690527      -0.00595978       0.00889723       0.01402608
B        0.17406150      -0.31053185       3.95837584      -0.00962565      -0.00340042       0.01017864
B        0.81449167      -1.56044811       2.87417389      -0.00178374       0.00503442      -0.00056516
C       -0.13966971      -1.44812943       1.47612493       0.01830898      -0.00550734      -0.00077715
B        1.10160732       0.95899883       1.55688052      -0.00622329      -0.02579368       0.01407453
B       -0.64322758       1.24994491       1.63600000      -0.10782146       0.16389742       0.04093027
B       -1.42217604      -0.34685595       1.54096860      -0.02191854      -0.00136432       0.00738681
B       -0.92747174      -1.28499316       2.96883884      -0.01082679      -0.00696018       0.02359654
C        1.05750574       0.98507813      -1.48075520       0.01278728       0.00718730      -0.00123295
B        1.59890330       0.32874342      -2.94367612      -0.01458690       0.00194570       0.00647990
B        0.71884876      -1.20078533      -3.09616674      -0.00126024       0.00652229       0.00200237
B       -1.00821182      -0.82461124      -3.12558940      -0.00442380      -0.00797086      -0.01304093
B        0.15188828       0.25483660      -3.95555790      -0.01433436       0.00472250      -0.00896694
B        0.42715398       1.64842744      -2.89108627      -0.00295701      -0.00162964      -0.00031798
C       -0.49065632       1.32207729      -1.50052059       0.01298296       0.00666257       0.00119355
B        1.33234783      -0.68635018      -1.52033655      -0.01275694       0.02053809      -0.01469536
B       -0.27500000      -1.43300000      -1.61500000      -0.01633326       0.07886316      -0.05261807
B       -1.43949845      -0.08259234      -1.55803371      -0.02101091      -0.00306711      -0.00700200
B       -1.18123760       0.92662964      -2.99995988      -0.01567447       0.00623880      -0.02108588
Co       0.00000000       0.00000000       0.00000000       0.27991506      -0.26200992      -0.01290212
H        2.06605376      -1.21351888       0.96741398       0.02313392      -0.00075342      -0.00236024
H        2.73184274       0.06172424       3.32511295      -0.01579495      -0.00089499       0.02278785
H        0.57691523       2.26441908       3.72109733      -0.01421293       0.00192213       0.01259841
H       -2.15186260       0.85151306       3.73014822      -0.02321788       0.00392846      -0.00153865
H        0.24483578      -0.44188589       5.13408764      -0.02553340       0.00121122       0.01805839
H        1.34315865      -2.58969692       3.11484019      -0.01633352       0.00871189       0.01551217
H       -0.20832641      -2.38641571       0.95301436       0.00979795      -0.00927038      -0.00109072
H        1.96025245       1.65858371       1.12862261       0.02317941       0.02578793      -0.00013587
H       -1.17334646       2.26917360       1.31911212       0.00337434      -0.00269024      -0.00183804
H       -2.49189985      -0.64036032       1.12992455       0.02729500      -0.00278432      -0.00423024
H       -1.61487078      -2.17171044       3.34318186      -0.01504568      -0.00065640      -0.00168199
H        1.69679860       1.67540406      -0.96140273       0.01895116       0.00578123       0.00145451
H        2.70714278       0.56949847      -3.28357527      -0.02055317       0.00030359      -0.02158320
H        1.20876588      -2.12137293      -3.65900364      -0.01691292       0.00138216      -0.01511260
H       -1.79778085      -1.46512549      -3.73333091      -0.02485052      -0.00520327       0.00191717
H        0.20711043       0.37865476      -5.13293868      -0.02838378      -0.00076774      -0.01636473
H        0.67512387       2.77373006      -3.15313522      -0.01586273      -0.00703939      -0.01050901
H       -0.81076749       2.22184151      -1.00265006       0.00661357       0.00737425       0.00197201
H        2.33837241      -1.13003992      -1.07341424       0.03253282      -0.02212254       0.00410260
H       -0.52812065      -2.54766451      -1.28143094       0.00257090       0.00421231       0.00257031
H       -2.55594794      -0.06895076      -1.16716149       0.02452606       0.00874197       0.00755094
H       -2.06798389       1.59587923      -3.40530351      -0.01871849       0.00090381       0.00579777
