45
Properties=species:S:1:pos:R:3:forces:R:3 charge=-1 spin=1 energy=-242.2416229248047 free_energy=-242.2416229248047 stress="1.8154877601261887e-09 1.923705994499869e-08 -3.707361884153215e-08 1.923705994499869e-08 6.64143726680777e-08 2.6356811844152617e-08 -3.707361884153215e-08 2.6356811844152617e-08 4.898047833989949e-08" pbc="F F F"
C        0.55167117       1.37607792       1.59806007      -0.00187889      -0.00047790      -0.00412509
B       -0.26564926       1.53311059       3.05107409      -0.00456611       0.01134528       0.00267284
B       -1.30157721       0.10409033       3.11321946      -0.01234332      -0.00415375       0.00550748
B       -0.23712329      -1.32741163       3.10532655      -0.00554417      -0.01126266       0.00240992
B        0.25543298       0.14180404       4.00312208      -0.00600843      -0.00538822       0.00781670
B        1.40670089       0.99798082       3.03980511       0.00185738       0.00385839      -0.01124469
C        1.50760129       0.08560916       1.59006737       0.00623739       0.02694678      -0.01688066
B       -1.06829834       0.93900308       1.55984306       0.00999019       0.00917304       0.00039870
B       -1.10727612      -0.86605057       1.63600000       0.03764877       0.12364741      -0.22440848
B        0.60465985      -1.32261953       1.51244193       0.01025456      -0.02267332       0.03179796
B        1.42988044      -0.74929405       3.04113754      -0.00091774      -0.01460684      -0.00386542
C        1.12924424       0.97598540      -1.59043132       0.01591239      -0.01676720       0.00104165
B        1.62188889       0.25045243      -3.01889916       0.01139515       0.00382295      -0.00076163
B        0.70472006      -1.25695815      -3.07456846       0.00496967      -0.01155530      -0.00622226
B       -1.02533519      -0.82505344      -3.10567370      -0.00497359      -0.01117890      -0.00328866
B        0.15705078       0.17971430      -4.00056662      -0.00138785      -0.00735128      -0.00489848
B        0.48926843       1.58958190      -3.05659008       0.00101968       0.00189071      -0.00179268
C       -0.42876051       1.36296932      -1.62231768       0.01391032       0.01163968       0.01829669
B        1.34719692      -0.68754055      -1.51808331       0.01489496       0.01365672       0.00122638
B       -0.27500000      -1.43300000      -1.61500000      -0.03998367       0.17329717       0.21501637
B       -1.38269611      -0.01469711      -1.54357824      -0.01472116      -0.01221009      -0.02683319
B       -1.13580119       0.93967946      -3.07982234      -0.01684256      -0.01463469      -0.00403443
Co       0.00000000       0.00000000       0.00000000       0.04377483      -0.22596523       0.02310759
H        0.90143877       2.28351921       1.09493853      -0.00597291      -0.00382809       0.02607889
H       -0.53405570       2.62322019       3.45398169      -0.00101813      -0.01130636       0.00636430
H       -2.34765188       0.13035423       3.68858839       0.00627379      -0.00504245       0.00346768
H       -0.51102057      -2.34023845       3.67550175       0.00454103      -0.00724444      -0.00234881
H        0.28210858       0.16154774       5.19252544       0.00092184      -0.00645858       0.00486685
H        2.32956101       1.68032984       3.34665775      -0.00966787      -0.00559920       0.00680801
H        2.46539380       0.15178187       1.06530713      -0.00155266      -0.01390897       0.02725422
H       -1.88747155       1.68752923       1.11206635       0.00839674      -0.00323408      -0.01383874
H       -2.01572995      -1.53126950       1.23050857       0.00362668       0.00968615       0.02522903
H        1.09669993      -2.32116235       1.07712678      -0.00133040       0.00284518      -0.00463187
H        2.39132879      -1.33611844       3.43136032       0.00046387      -0.00260383      -0.00058767
H        1.82339252       1.65351045      -1.08268808      -0.00582084       0.00022683      -0.02805983
H        2.74051118       0.40943325      -3.40108821      -0.01256555       0.00280262      -0.00578326
H        1.14243261      -2.22042459      -3.62809899      -0.00345930       0.00652350      -0.00428682
H       -1.84456797      -1.47740363      -3.67919684      -0.00632580      -0.00187273       0.00045367
H        0.18610024       0.18946937      -5.18998641      -0.00233899      -0.00111417      -0.00524656
H        0.77632562       2.69568030      -3.38054219      -0.00951207      -0.00355211      -0.00632699
H       -0.74580159       2.28534448      -1.12551787      -0.02279926      -0.00201033      -0.03032903
H        2.34338486      -1.14173630      -1.03750724      -0.00894830       0.01443302       0.02009740
H       -0.55841346      -2.51358679      -1.18603220       0.01710156       0.02169221      -0.02863628
H       -2.50515603       0.05813695      -1.13739756      -0.00460186      -0.00811038       0.00810330
H       -2.03528641       1.59638123      -3.50477400      -0.00810976      -0.00337681       0.00041637
