45
Properties=species:S:1:pos:R:3:forces:R:3 charge=-1 spin=1 energy=-242.30552673339844 free_energy=-242.30552673339844 stress="-5.779823197826772e-08 -5.685877990657673e-09 3.618686150730355e-08 -5.685877990657673e-09 -9.57795194267419e-08 1.0450772691683596e-07 3.618686150730355e-08 1.0450772691683596e-07 -1.7399648299942783e-07" pbc="F F F"
C       -0.86541892      -1.14627575       1.55400000      -0.07314560      -0.23156935       0.19077824
B       -0.12290347      -1.52241666       3.02962786      -0.00077561      -0.00127807      -0.00280211
B        1.25439023      -0.41272004       3.08828479       0.00005756       0.00344158       0.00291064
B        0.60135087       1.24770481       3.08119183      -0.00359843       0.00177220       0.00009760
B       -0.25750625      -0.05025798       3.97975516       0.00181482       0.00389622       0.00118091
B       -1.59344747      -0.57579334       3.02185438      -0.00165270      -0.00032700      -0.00308843
C       -1.45562873       0.33465652       1.56400000      -0.05090296       0.05040035       0.09317654
B        0.81460845      -1.15685692       1.52978092      -0.00487951      -0.00168842      -0.00303216
B        1.30940675       0.56995867       1.60799811      -0.00064307       0.00259653      -0.00020476
B       -0.22978462       1.47972616       1.53046827      -0.00157161       0.00003490       0.00105390
B       -1.16031246       1.12237120       3.02417433       0.00038093       0.00051340      -0.00050796
C        1.14300000       0.92400000      -1.55300000       0.14160261      -0.00288245      -0.07102416
B        1.62282884       0.17907481      -2.98913772       0.00142927       0.00055149       0.00246970
B        0.66981287      -1.31085295      -3.01917856      -0.00213206      -0.00003926      -0.00325187
B       -1.05301928      -0.84729694      -3.07268997      -0.00198646       0.00446388      -0.00087461
B        0.16277306       0.12773494      -3.96381500      -0.00324098      -0.00145731      -0.00085458
B        0.52248667       1.53606594      -3.03534043       0.00112652       0.00225835       0.00261721
C       -0.40000000       1.32300000      -1.56800000      -0.13413408       0.24040216      -0.32427740
B        1.31965793      -0.74149832      -1.45711018       0.00059366       0.00286301       0.00223237
B       -0.33819994      -1.43492277      -1.56250718      -0.00303046       0.00057289       0.00092772
B       -1.42624063      -0.01295842      -1.55710719      -0.00019076       0.00145901      -0.00188002
B       -1.11926860       0.91963230      -3.04979696      -0.00060290      -0.00055047      -0.00008153
Co       0.00000000       0.00000000       0.00000000       0.13962495      -0.08182845       0.11469451
H       -1.42806872      -1.93238265       1.04164484       0.00081277      -0.00079438      -0.00095879
H       -0.14617506      -2.64771453       3.42233697       0.00122797      -0.00043592       0.00068207
H        2.25964552      -0.70942087       3.65991767       0.00113662       0.00210255       0.00166477
H        1.13746128       2.14819048       3.65192672      -0.00276022      -0.00018312       0.00069834
H       -0.28187774      -0.05693506       5.16969762      -0.00058041       0.00018553       0.00176175
H       -2.66026870      -0.99733240       3.32823693      -0.00106147      -0.00110921       0.00046012
H       -2.40505363       0.51457844       1.05227860      -0.00231787      -0.00062153       0.00239319
H        1.40893050      -2.10243304       1.10312764       0.00046914       0.00110167       0.00347067
H        2.35140342       0.98337672       1.18880454      -0.00030964       0.00295756      -0.00002588
H       -0.43894530       2.56277707       1.06845489      -0.00158652      -0.00022121      -0.00027199
H       -1.94060970       1.93107860       3.42167140      -0.00096163      -0.00142877      -0.00032531
H        1.84817493       1.57993112      -1.03476348       0.00082538      -0.00117353       0.00131543
H        2.74646941       0.30609203      -3.36597278       0.00121868      -0.00110586      -0.00021072
H        1.08989778      -2.29338377      -3.55132481      -0.00137631      -0.00156820      -0.00136641
H       -1.87131203      -1.49488361      -3.65164486       0.00031032       0.00326890      -0.00096533
H        0.19041146       0.12189969      -5.15373697       0.00096372       0.00047668      -0.00152244
H        0.82140420       2.63707615      -3.36361925       0.00191960       0.00204676      -0.00075480
H       -0.69546116       2.26801369      -1.10328076       0.00107809       0.00088389       0.00099781
H        2.30579591      -1.21503895      -0.97692235      -0.00057714      -0.00047894      -0.00277288
H       -0.63902164      -2.50364514      -1.11615678      -0.00350507      -0.00018859      -0.00112145
H       -2.53847926       0.08756755      -1.12738885      -0.00095968       0.00099825      -0.00269245
H       -1.99519832       1.60486134      -3.47878776       0.00189008       0.00168270      -0.00071526
