45
Properties=species:S:1:pos:R:3:forces:R:3 charge=-1 spin=1 energy=-242.280029296875 free_energy=-242.280029296875 stress="-4.9979941962874364e-08 1.2174737662462576e-08 -4.682777188236287e-08 1.2174737662462576e-08 -1.0233520697511267e-07 4.394400576757107e-08 -4.682777188236287e-08 4.394400576757107e-08 -2.0786102084002778e-07" pbc="F F F"
C        0.98049651       1.04953542       1.55400000       0.10221553       0.18064439       0.30384582
B        0.27325259       1.49379306       3.02603032      -0.00170754      -0.00041349       0.00125317
B       -1.21559524       0.54629686       3.07620229      -0.00078420       0.00049481       0.00062783
B       -0.74901862      -1.17591744       3.05295338      -0.00061201       0.00110401      -0.00090857
B        0.23893805       0.00310720       3.97083606      -0.00218660      -0.00057031      -0.00164790
B        1.63159726       0.38576163       3.02597146      -0.00155920      -0.00048034       0.00182384
C        1.41267352      -0.48497787       1.56400000       0.01716959      -0.10046819       0.11509734
B       -0.68792863       1.26287163       1.54389999      -0.00070192       0.00072753      -0.00164577
B       -1.36669312      -0.39908258       1.56889545      -0.00127408       0.00210658       0.00060955
B        0.05931742      -1.47791224       1.48205330      -0.00492373       0.00290862      -0.00206763
B        1.01468523      -1.24936666       3.01243660      -0.00217033      -0.00004289       0.00140305
C        1.14300000       0.92400000      -1.55300000       0.08818139       0.00709805      -0.22987521
B        1.61305090       0.19643500      -3.00121756      -0.00113287      -0.00134381      -0.00188733
B        0.66998483      -1.29472052      -3.04678985       0.00036253      -0.00007151      -0.00088443
B       -1.05453835      -0.84010356      -3.07253733       0.00011322      -0.00033045       0.00126521
B        0.13919751       0.14800283      -3.96985502      -0.00152967      -0.00157108       0.00154408
B        0.49957679       1.54857225      -3.02766458      -0.00161620      -0.00104102      -0.00141150
C       -0.40000000       1.32300000      -1.56800000      -0.19017102       0.29305968      -0.24274488
B        1.34686536      -0.73943799      -1.50835765       0.00017685      -0.00100831       0.00190350
B       -0.30790115      -1.43275262      -1.56226513       0.00204550      -0.00064760      -0.00087416
B       -1.40644445      -0.02662101      -1.51909609       0.00184697      -0.00360516       0.00103957
B       -1.13455988       0.92192842      -3.04009221      -0.00064332      -0.00151469      -0.00009863
Co       0.00000000       0.00000000       0.00000000       0.00393838      -0.37803948       0.05375425
H        1.65131409       1.77523843       1.08449231       0.00154258       0.00114433      -0.00226490
H        0.42871432       2.60187723       3.43613054      -0.00060705       0.00049537       0.00048670
H       -2.18517882       0.93657073       3.65217436      -0.00251156       0.00132215      -0.00282326
H       -1.38479713      -2.02359466       3.60302045      -0.00226972       0.00126031      -0.00333744
H        0.25916894      -0.00049002       5.16062795      -0.00334733      -0.00105677      -0.00264733
H        2.73440890       0.68767210       3.34521470      -0.00054011      -0.00065108       0.00132036
H        2.33706342      -0.77496767       1.05962239       0.00506727       0.00041585      -0.00328057
H       -1.17004139       2.25916787       1.08862770       0.00059300       0.00091472      -0.00155357
H       -2.45697965      -0.68911860       1.17221885      -0.00142108       0.00170440      -0.00282878
H        0.14973746      -2.58002961       1.03086304       0.00039453       0.00062756       0.00127665
H        1.69273239      -2.14736913       3.40504600      -0.00185888      -0.00125037      -0.00019491
H        1.85314830       1.60126538      -1.06995076       0.00123522       0.00148046       0.00247097
H        2.72753095       0.34557756      -3.39541297      -0.00039139      -0.00003504      -0.00149164
H        1.07837467      -2.26961409      -3.60043367       0.00023335      -0.00193104       0.00219809
H       -1.88183300      -1.48671576      -3.64054519       0.00028720      -0.00241633       0.00392218
H        0.16033936       0.15801478      -5.15958574      -0.00263618      -0.00254971       0.00250356
H        0.79275827       2.65303792      -3.34940004      -0.00153334      -0.00024945      -0.00119081
H       -0.70782476       2.25690799      -1.08843103       0.00115863       0.00491333       0.00272574
H        2.33461658      -1.21580155      -1.03372390       0.00089776       0.00209080       0.00084075
H       -0.59223235      -2.51967278      -1.15575301       0.00181189      -0.00122947       0.00165161
H       -2.51984459       0.06080060      -1.09219701       0.00074303       0.00006317       0.00125726
H       -2.02262269       1.60157361      -3.45235814      -0.00188479      -0.00205843       0.00083779
