45
Properties=species:S:1:pos:R:3:forces:R:3 charge=-1 spin=1 energy=-242.30992126464844 free_energy=-242.30992126464844 stress="6.338575886388753e-09 -1.1849862424639923e-08 -1.6786600554041797e-08 -1.1849862424639923e-08 5.209882303347513e-08 4.8986152023644536e-08 -1.6786600554041797e-08 4.8986152023644536e-08 7.191071205170374e-08" pbc="F F F"
C        0.93821639      -1.14511077       1.59177282      -0.00506965      -0.01395547      -0.01283288
B        1.47421212      -0.51205083       3.05018318      -0.00598254       0.00491708       0.01045502
B        0.72041750       1.09066232       3.10948729      -0.00432706       0.00673333       0.00707623
B       -1.04719948       0.85012757       3.10667896       0.00176993      -0.00274275      -0.00711606
B        0.00517471      -0.29501993       4.00168676      -0.00385975       0.00099405       0.00083134
B        0.19915632      -1.71723732       3.03775458      -0.00587492      -0.00213386      -0.01234606
C       -0.65242723      -1.35949250       1.58000802       0.02957062      -0.01640183       0.00715962
B        1.33738269       0.48979768       1.56332097      -0.00986382      -0.00523355      -0.01365231
B       -0.22549156       1.38753651       1.63600000       0.09855513      -0.03673479      -0.10839644
B       -1.45543354       0.10515454       1.52336291      -0.00844979       0.01298633       0.00837259
B       -1.34384562      -0.89137347       3.04293368      -0.00079155      -0.01197746      -0.01135218
C        1.13055199       0.97014103      -1.58286987       0.00251284       0.01438305       0.00131121
B        1.62396953       0.25153546      -3.01986125      -0.00379714       0.00341102      -0.00200341
B        0.70421884      -1.25791635      -3.07039930       0.00074811      -0.00522417      -0.00690329
B       -1.02572143      -0.82694870      -3.10626965       0.00414388       0.00017099       0.00550251
B        0.15985423       0.18206345      -3.99961336       0.00099325      -0.00198830       0.00028747
B        0.49490525       1.59109692      -3.05629255      -0.00608054       0.00358681       0.01382096
C       -0.42557458       1.36187039      -1.61421112       0.02205141       0.01415828      -0.01459220
B        1.34368351      -0.69334281      -1.51197915      -0.00859371       0.00789358       0.01781723
B       -0.27500000      -1.43300000      -1.61500000      -0.03051238       0.14401433       0.08705853
B       -1.38840070      -0.00968298      -1.56230428      -0.01286149      -0.01602472      -0.01403362
B       -1.13332252       0.94145674      -3.08185166      -0.00073058       0.00776125       0.01032921
Co       0.00000000       0.00000000       0.00000000       0.00343462      -0.10968184       0.02471531
H        1.55881156      -1.87528180       1.06568359       0.01332508       0.00654485       0.01032206
H        2.56065988      -0.79849610       3.44966164      -0.00319132      -0.00064915       0.00475964
H        1.25035918       1.99264213       3.68392661      -0.00536220       0.00679217       0.00859880
H       -1.79771915       1.57990944       3.68186817      -0.00239997      -0.00966141      -0.01240557
H        0.00903801      -0.32527073       5.19205028      -0.00253660       0.00106354       0.00063290
H        0.35008119      -2.85530247       3.34364064      -0.00208984       0.00852504      -0.00331530
H       -1.05366105      -2.22876086       1.05104182       0.01973131       0.01855835       0.00061969
H        2.39434363       0.83416463       1.12262227      -0.01143785       0.01592970      -0.01613309
H       -0.37037581       2.50487526       1.22867746      -0.01061385      -0.01641190      -0.00196341
H       -2.56506496       0.16364421       1.08743138      -0.01636890      -0.01287405       0.01380824
H       -2.32015226      -1.45327840       3.43368680      -0.00401892      -0.00103260      -0.00391605
H        1.82030900       1.63614758      -1.05716695      -0.00061111      -0.00190014      -0.00282677
H        2.74338690       0.40467102      -3.40102746      -0.00281426       0.00870286       0.00388123
H        1.14217750      -2.21927263      -3.62546185       0.00264711      -0.00731397      -0.00403506
H       -1.84301973      -1.47899739      -3.68348098       0.00520992       0.00340460       0.00841299
H        0.18357136       0.19163612      -5.19003177       0.00557536      -0.00518067       0.00008047
H        0.78139989       2.69819260      -3.37812263      -0.00799900      -0.00646359       0.00362694
H       -0.74035581       2.28284447      -1.11409054       0.00551413      -0.01686285      -0.00372195
H        2.34565984      -1.13949438      -1.03726222      -0.00935489      -0.00719491       0.01971290
H       -0.55983166      -2.51232159      -1.18313083      -0.01032705       0.01021723       0.00300238
H       -2.50742320       0.05600201      -1.15155129      -0.01726909       0.01189591      -0.01715381
H       -2.03212858       1.60213369      -3.50305887      -0.00259225      -0.00500073      -0.00349578
