45
Properties=species:S:1:pos:R:3:forces:R:3 charge=-1 spin=1 energy=-54314.527283685384 free_energy=-54314.527283685384 stress="0.6645269393920898 0.46688729524612427 -0.7136848568916321 0.46688729524612427 1.0363435745239258 -1.3474584817886353 -0.7136848568916321 -1.3474584817886353 1.9627964496612549" pbc="F F F"
C        0.73861673      -1.23180491       1.55400000      -0.13827595       0.07959136      -0.23906279
B        1.38001832      -0.67497961       3.01524817       0.00059724       0.00295983      -0.00085068
B        0.87416747       1.01886837       3.11138119       0.00218121      -0.00042975      -0.00138997
B       -0.89633281       1.05035036       3.10091278       0.00069798      -0.00128615       0.00398932
B       -0.03582914      -0.24114217       3.98674460      -0.00009447      -0.00313172      -0.00057269
B       -0.06218247      -1.69679073       2.96382157      -0.00076106       0.00022816       0.00023944
C       -0.85557624      -1.22427092       1.56400000       0.26227579       0.52931607      -0.38316119
B        1.39363230       0.33300982       1.55483164       0.00043278       0.00283096       0.00118282
B       -0.00355982       1.43204971       1.60474375       0.00128211       0.00098963       0.00270932
B       -1.43869269       0.37486900       1.54040569      -0.00061677       0.00077219      -0.00359916
B       -1.46909551      -0.61887661       3.01515154       0.00113965      -0.00129048      -0.00338097
C        1.14300000       0.92400000      -1.55300000      -0.30771905      -0.10629690       0.51191968
B        1.63439703       0.17567668      -2.97577659       0.00026060      -0.00335239       0.00203261
B        0.68566110      -1.31410047      -3.05856320       0.00277090       0.00003278       0.00297542
B       -1.02616092      -0.86380089      -3.11035069       0.00206965       0.00077014      -0.00420913
B        0.17618084       0.12805083      -3.97987181       0.00155451       0.00239072       0.00047947
B        0.52094749       1.55326692      -2.97364911      -0.00092948      -0.00029807      -0.00168413
C       -0.40000000       1.32300000      -1.56800000      -0.02180186      -0.13592286       0.07484971
B        1.32499753      -0.75602653      -1.49087492      -0.00055464      -0.00291083       0.00010969
B       -0.31319449      -1.43806752      -1.57859427       0.00013164      -0.00196617      -0.00302745
B       -1.41648059      -0.04022555      -1.58123733      -0.00090021      -0.00048210       0.00418646
B       -1.12082919       0.90093610      -3.05120979       0.00139911       0.00089637       0.00306719
Co       0.00000000       0.00000000       0.00000000       0.22323310      -0.37134945       0.03235282
H        1.21439798      -2.05628514       1.04907605      -0.00331482       0.00175724       0.00254858
H        2.38915960      -1.14989565       3.41075665      -0.00092642       0.00020946      -0.00304912
H        1.54190783       1.81729010       3.67817101      -0.00051307      -0.00074325       0.00019827
H       -1.53624474       1.87227463       3.66651687      -0.00117848       0.00253625      -0.00035202
H       -0.04028300      -0.33568655       5.16896687       0.00016339      -0.00057045      -0.00073566
H       -0.07853740      -2.83581126       3.27708179      -0.00050579      -0.00019359      -0.00211158
H       -1.35447333      -2.02533405       1.04480544      -0.00052981       0.00426351       0.00281627
H        2.47814207       0.52625313       1.10746911      -0.00149058      -0.00103184      -0.00127089
H        0.01459485       2.56502445       1.23284967       0.00054272       0.00026243      -0.00153633
H       -2.50807244       0.61951690       1.09645474      -0.00434734       0.00368375      -0.00108351
H       -2.49803153      -1.04602744       3.41410007       0.00122048       0.00189395      -0.00321977
H        1.80776642       1.59392632      -1.03349559      -0.00395207      -0.00047259      -0.00176179
H        2.74459281       0.34756513      -3.34755237      -0.00114160       0.00019536       0.00262262
H        1.12567732      -2.27820841      -3.58921369      -0.00100862       0.00195105      -0.00025381
H       -1.84923018      -1.49143699      -3.68791133      -0.00162198      -0.00123638       0.00015979
H        0.22626701       0.19967290      -5.16260812       0.00011513       0.00145235       0.00067328
H        0.80877596       2.65250746      -3.29669657      -0.00103408       0.00099439       0.00259774
H       -0.67471868       2.25169885      -1.09522090      -0.00177412      -0.00312487      -0.00179780
H        2.29672810      -1.23305714      -0.99953609      -0.00100646       0.00092487       0.00110632
H       -0.60707694      -2.52546411      -1.18671654      -0.00033098      -0.00099917       0.00114584
H       -2.52389944       0.02932247      -1.17093940      -0.00586604      -0.00213873       0.00063916
H       -1.97873750       1.59292490      -3.48166689       0.00012787      -0.00167504       0.00350897
