45
Properties=species:S:1:pos:R:3:forces:R:3 charge=-1 spin=1 energy=-54314.53386022347 free_energy=-54314.53386022347 stress="0.9359381198883057 0.1407722383737564 0.07577857375144958 0.1407722383737564 1.024134874343872 -1.4898115396499634 0.07577857375144958 -1.4898115396499634 2.2502200603485107" pbc="F F F"
C        1.42281239      -0.19622159       1.55400000      -0.25557467       0.04276858      -0.01438915
B        1.38380844       0.65199833       3.01820603      -0.00420516      -0.00717197       0.01202104
B       -0.25975602       1.30825197       3.11197233       0.00143022       0.00627267      -0.01097387
B       -1.38821863      -0.05821294       3.08592091       0.00003715       0.01442703       0.00403674
B        0.15829593      -0.19017314       3.98207765      -0.01347572       0.00959903      -0.00524091
B        1.28462817      -1.11191442       2.96427333      -0.00154467      -0.00030668      -0.00702208
C        0.41801347      -1.43391587       1.56400000      -0.03107443       0.55537033      -0.56217623
B        0.60340206       1.29388306       1.56339894      -0.03583066       0.00617206      -0.01065612
B       -1.13157397       0.88901100       1.59649325       0.00155983       0.00781620      -0.02013947
B       -1.19376497      -0.89543797       1.51238153      -0.00929790       0.03540511      -0.02547370
B       -0.43820589      -1.54031805       3.00140937       0.01278186       0.00109334       0.02583195
C        1.14300000       0.92400000      -1.55300000      -0.39470452      -0.32426348       0.23512068
B        1.62034960       0.16752525      -2.98310246      -0.00713539       0.00316252      -0.01223578
B        0.65388004      -1.31525646      -3.05925683       0.00720588       0.00044639       0.00923486
B       -1.05666105      -0.85318313      -3.08954625       0.00730210      -0.00564712      -0.00976119
B        0.15168253       0.12909993      -3.97459964      -0.01131208      -0.01010263       0.00472963
B        0.51801274       1.55077552      -2.97599548      -0.00243785       0.00166312       0.00904230
C       -0.40000000       1.32300000      -1.56800000       0.11180377       0.01652270       0.34709418
B        1.30976340      -0.76404364      -1.50605914      -0.02767974      -0.02342255       0.00632163
B       -0.33753611      -1.44046999      -1.56783726       0.00144595      -0.00383275       0.01687355
B       -1.42925720      -0.02807034      -1.54644596       0.01439506      -0.03291646       0.02734505
B       -1.13277250       0.90727615      -3.03309705       0.01419029       0.00981176      -0.03072653
Co       0.00000000       0.00000000       0.00000000       0.64065534      -0.32274833       0.02239940
H        2.36865791      -0.34583968       1.06068401       0.00645233      -0.00376499      -0.00267840
H        2.38372805       1.14337742       3.41898110      -0.00051075      -0.00031616      -0.00191003
H       -0.47110497       2.32425765       3.68510536      -0.00191835      -0.00287527      -0.00787154
H       -2.42737006      -0.05036912       3.65542079      -0.01059895       0.00371148      -0.01122557
H        0.22538470      -0.25684767       5.16487058      -0.01136666      -0.00026731      -0.01516622
H        2.16267706      -1.83937645       3.27654635      -0.01188405       0.00297552      -0.00025368
H        0.73114481      -2.32150035       1.04137820       0.01100617      -0.02833016      -0.01490944
H        1.12627769       2.26769938       1.11726868       0.01216840      -0.00705369      -0.01175869
H       -2.00519578       1.60897689       1.22644631       0.02636630      -0.00885079       0.00078075
H       -2.04012528      -1.58956629       1.06094375      -0.00207586       0.00386042      -0.00744754
H       -0.74312039      -2.61209117       3.39767714      -0.01456571      -0.01377288      -0.00783189
H        1.81142461       1.59906922      -1.04601891       0.00985200       0.01185243       0.00826922
H        2.72929697       0.32942656      -3.36502462      -0.00093375       0.00271371       0.00083260
H        1.08258024      -2.28281789      -3.59357809      -0.00498124       0.00472726       0.00072482
H       -1.88531502      -1.47265899      -3.66717391      -0.00783452      -0.00335687       0.00560360
H        0.19240258       0.19869179      -5.15838489      -0.00982581       0.00181532       0.01587729
H        0.80488055       2.65013573      -3.30216801      -0.00813423      -0.00638328       0.00385785
H       -0.66951568       2.25244694      -1.09403309      -0.00591849       0.02285977       0.01403235
H        2.28089650      -1.25771802      -1.02388116       0.00653435       0.01134418       0.01158142
H       -0.63704168      -2.52408491      -1.17463545       0.01740446       0.02508744      -0.00882559
H       -2.53104953       0.06621563      -1.12382113      -0.00012290      -0.00303920       0.00683171
H       -1.98513634       1.60710411      -3.46001862      -0.01764758       0.00694416       0.01023074
