45
Properties=species:S:1:pos:R:3:forces:R:3 charge=-1 spin=1 energy=-242.22393798828125 free_energy=-242.22393798828125 stress="2.7520070666753327e-09 8.703839426971172e-09 -1.991718612259774e-08 8.703839426971172e-09 5.3818947520767324e-08 7.480953634342313e-09 -1.991718612259774e-08 7.480953634342313e-09 6.457312906604784e-08" pbc="F F F"
C        0.10336520       1.47242641       1.58363159       0.01373890      -0.00780985      -0.00249800
B       -0.71725439       1.38545378       3.03639582      -0.01029024      -0.01515658       0.01199441
B       -1.26429064      -0.29091262       3.12002981       0.00066829      -0.01462464       0.00815944
B        0.18323752      -1.32835048       3.12011423      -0.00596822      -0.00134957       0.00671305
B        0.20921726       0.23533045       4.00058628      -0.02428581      -0.02788640      -0.00343589
B        1.04090903       1.38652222       3.01285297      -0.00941640      -0.01217498       0.01980957
C        1.41766978       0.52389369       1.58478358      -0.02722578       0.03057376      -0.00520131
B       -1.30804177       0.55388213       1.56202741       0.02655706       0.00301957      -0.03950980
B       -0.78545783      -1.16583018       1.63600000       0.01354688       0.12543142      -0.17593288
B        0.98186890      -1.09142090       1.53217277       0.01870528       0.01518759       0.01314034
B        1.59387607      -0.27280004       3.04487491      -0.00959047      -0.02790140      -0.00889201
C        1.15653641       0.95105490      -1.58316187      -0.03237768       0.02436078       0.00177014
B        1.62832879       0.24840671      -3.02274903      -0.00712280      -0.02498994      -0.00521861
B        0.69810413      -1.24760793      -3.09322711      -0.00612982      -0.01050484      -0.00325947
B       -1.02667584      -0.80780122      -3.11257346       0.00642383      -0.01300690      -0.01432722
B        0.15965032       0.20929481      -3.99647014      -0.01295984      -0.03932627      -0.00047557
B        0.50513147       1.59729456      -3.02387089      -0.00796500      -0.01374711      -0.02646101
C       -0.41739356       1.35791175      -1.60459227       0.00777455      -0.00931826       0.00483981
B        1.35104068      -0.71391039      -1.53122167      -0.00963145       0.02783496       0.03708538
B       -0.27500000      -1.43300000      -1.61500000      -0.03117752       0.19779840       0.15315321
B       -1.38460817      -0.02206970      -1.55433435       0.00390375       0.01205102       0.00681393
B       -1.12921211       0.95498548      -3.06128923      -0.01174175      -0.02034628      -0.00067458
Co       0.00000000       0.00000000       0.00000000       0.10806399      -0.32245296       0.02709895
H        0.15376161       2.43949786       1.07421102       0.00598980      -0.00352511       0.00931621
H       -1.30758631       2.34069524       3.43502141      -0.00358948       0.01637942       0.00926521
H       -2.25879061      -0.58749649       3.70939796      -0.01383255       0.00116285      -0.00031345
H        0.22723062      -2.36659151       3.70766083       0.00529785      -0.01120193      -0.00632980
H        0.23597553       0.28257683       5.18905747      -0.00373483      -0.00998938       0.00337610
H        1.71136880       2.31856128       3.31512211       0.00503160       0.01002291      -0.00968066
H        2.31607073       0.86435157       1.06261055      -0.02071896       0.03800564       0.01777361
H       -2.31676181       0.99871297       1.09954245      -0.00284121       0.01000275       0.00916740
H       -1.44624874      -2.09527696       1.27416291       0.00705195       0.01902561      -0.01585430
H        1.75065827      -1.89904291       1.10612320       0.00057366      -0.00810240      -0.00871006
H        2.68423897      -0.53678126       3.44571353       0.02010782       0.00016109      -0.00731622
H        1.86321995       1.61193913      -1.07339010      -0.01624647       0.01419034      -0.00345246
H        2.74152684       0.40027103      -3.41976600       0.01563272       0.01034707       0.00273430
H        1.11811642      -2.20322616      -3.67160961       0.01045258      -0.01277389       0.00313857
H       -1.84139329      -1.45182283      -3.70081764      -0.01600938      -0.00674382       0.00204591
H        0.18482586       0.24744039      -5.18510905      -0.00295728      -0.01189120      -0.00739922
H        0.79630755       2.70406453      -3.33878780      -0.00223801       0.01622078       0.00443643
H       -0.73505719       2.27837583      -1.10592247       0.02802093       0.00585107      -0.01804934
H        2.33504449      -1.18996588      -1.05157011       0.00870930       0.01118270      -0.01014610
H       -0.56004650      -2.53024699      -1.23534983      -0.00166098       0.01949937       0.01957920
H       -2.50206165       0.04214213      -1.13441234      -0.00496051       0.00593546       0.00924321
H       -2.02674560       1.61926179      -3.47691109      -0.01157869       0.01057929      -0.00751646
