45
Properties=species:S:1:pos:R:3:forces:R:3 charge=-1 spin=1 energy=-54314.52847005623 free_energy=-54314.52847005623 stress="0.22862118482589722 0.12807351350784302 -0.0009924710029736161 0.12807351350784302 0.18265701830387115 -0.008621524088084698 -0.0009924710029736161 -0.008621524088084698 0.6577137112617493" pbc="F F F"
C        1.38857352      -0.46475395       1.49213068      -0.01731439       0.03671227       0.02804060
B        1.56688071       0.32030113       2.97920705      -0.01128440      -0.00430315       0.00627575
B        0.10369045       1.30339231       3.13812948      -0.00899216       0.00291093      -0.01765186
B       -1.28807995       0.20864396       3.11946341       0.00145080       0.00487473      -0.01158748
B        0.21684965      -0.27537844       3.95966255      -0.01343660      -0.00182332      -0.02257916
B        1.08976923      -1.37810089       2.87456980       0.00683870       0.00972883       0.02156805
C        0.14632990      -1.44767695       1.46812470       0.02955773       0.01587173       0.00118818
B        0.90052535       1.15405108       1.56262286      -0.02672338      -0.02094676       0.01237769
B       -0.86605057       1.10727612       1.63600000      -0.16915981       0.13259448      -0.02227615
B       -1.32769296      -0.61105315       1.52598699      -0.01288737       0.03593564       0.00228971
B       -0.67488412      -1.43752417       2.95784019       0.01237755      -0.00333368       0.03321831
C        1.06679119       0.98238811      -1.48506917      -0.00260243      -0.02892316      -0.02228709
B        1.59278768       0.32609654      -2.95306580      -0.01396230      -0.00105738      -0.00517590
B        0.70752335      -1.20068612      -3.10318720      -0.00611638      -0.00719888       0.01588439
B       -1.02208034      -0.82322031      -3.11752040       0.00253479      -0.00570749       0.00909285
B        0.13520972       0.25608302      -3.95662763      -0.01739479      -0.00421050       0.02223802
B        0.42174330       1.64786172      -2.89120534       0.00805733      -0.00692076      -0.01001183
C       -0.48241474       1.32574274      -1.49249238       0.02586300       0.00231695       0.00914190
B        1.33203657      -0.69266939      -1.52732288      -0.03851544       0.01047797      -0.01743177
B       -0.27500000      -1.43300000      -1.61500000      -0.07727782       0.08256712       0.01645530
B       -1.43932345      -0.07786034      -1.54165221       0.00430686      -0.03079153       0.00110188
B       -1.19049597       0.92800446      -2.98725560       0.00853696       0.00895203      -0.02779214
Co       0.00000000       0.00000000       0.00000000       0.51161778      -0.18429805      -0.00928152
H        2.27522814      -0.78822463       0.97444705      -0.03937670       0.00162340       0.02385678
H        2.66351929       0.57153382       3.35012198      -0.02473295       0.00704074       0.00442902
H        0.12859806       2.32927450       3.73175949      -0.01964447      -0.01206097      -0.00280611
H       -2.28606531       0.42874381       3.72099706       0.00000564      -0.02109515      -0.02858454
H        0.30058744      -0.39317757       5.13839696      -0.01601553      -0.00934133      -0.04528874
H        1.79521411      -2.29115168       3.13081571       0.00169367       0.00986456      -0.01046527
H        0.26151389      -2.38005383       0.94107382       0.00351859      -0.00259363       0.00740752
H        1.59742087       2.01596754       1.12962728       0.01047933      -0.01243071       0.01601347
H       -1.57324602       2.00669570       1.30162407       0.00050057      -0.00966225       0.01518480
H       -2.31318554      -1.09860693       1.08888798       0.00772568      -0.01180685       0.02152511
H       -1.18616885      -2.43495302       3.33507982       0.00040010      -0.02496114      -0.02467606
H        1.71521833       1.66959852      -0.96890409      -0.02415943      -0.01424543      -0.01726481
H        2.69592631       0.57105671      -3.30887456      -0.02209765      -0.01552687      -0.00717276
H        1.19200514      -2.11994482      -3.67371460      -0.02454417       0.00006181      -0.00383642
H       -1.81492490      -1.46293057      -3.72421369      -0.01477183       0.01584524       0.02645542
H        0.17963471       0.37965384      -5.13676264      -0.02415084       0.00232380       0.04186895
H        0.66342789       2.77244677      -3.16412345       0.00010908      -0.01270767       0.01071888
H       -0.79521976       2.22628571      -0.99072878      -0.00070885       0.00786192       0.00315304
H        2.32781098      -1.15963647      -1.07352895       0.00431861       0.02415155      -0.02363260
H       -0.52555030      -2.54125106      -1.25815821      -0.00277984       0.00374704      -0.02616680
H       -2.54575342      -0.06122976      -1.12244277       0.00180186       0.01169921      -0.02073735
H       -2.07841225       1.59578375      -3.39270411      -0.01304532       0.01878485       0.02722101
