45
Properties=species:S:1:pos:R:3:forces:R:3 charge=-1 spin=1 energy=-54314.511853234944 free_energy=-54314.511853234944 stress="0.9176042675971985 -0.20935790240764618 0.2524235248565674 -0.20935790240764618 1.1547774076461792 -1.1761645078659058 0.2524235248565674 -1.1761645078659058 1.7658536434173584" pbc="F F F"
C        1.43092718       0.12387659       1.55400000      -0.11169630      -0.13237457      -0.07072864
B        1.21100091       0.94896218       3.01438742       0.00146036       0.00009451      -0.00539553
B       -0.53218560       1.25039987       3.09233638       0.00417263      -0.00055339       0.00202003
B       -1.34987319      -0.32241827       3.06801951       0.00172302      -0.00354914      -0.00430455
B        0.18081632      -0.12646925       3.97334097       0.00048366       0.00025745      -0.00115911
B        1.48412713      -0.79754174       2.96773471       0.00089737      -0.00081921       0.00104451
C        0.72530748      -1.30567188       1.56400000      -0.42258754       0.63267642      -0.46494442
B        0.32346294       1.40597597       1.54835626       0.00107554       0.00271327      -0.00140271
B       -1.28894956       0.65141130       1.57626905      -0.00020649      -0.00754459      -0.00047841
B       -0.97647504      -1.11003437       1.50267475      -0.00415024       0.00474303      -0.00290478
B       -0.10942542      -1.57713510       2.99708368       0.00314509       0.00109067       0.00432196
C        1.14300000       0.92400000      -1.55300000      -0.38392100      -0.10379265       0.25181681
B        1.62993477       0.18209929      -2.98592405       0.00073270       0.00118059       0.00377119
B        0.68425659      -1.31154582      -3.05871284       0.00256515       0.00315686      -0.00086499
B       -1.03222075      -0.87007714      -3.08711327       0.00010670       0.00134431       0.00346254
B        0.15935633       0.12683117      -3.97351989       0.00062614       0.00078176       0.00134419
B        0.51103503       1.55285661      -2.97473510       0.00189144       0.00059478       0.00026185
C       -0.40000000       1.32300000      -1.56800000       0.02276871      -0.17017306       0.29401737
B        1.33016748      -0.75190343      -1.50393307       0.00283441       0.00006092       0.00103082
B       -0.30425264      -1.44966504      -1.56617291      -0.00747947       0.00566828       0.00068827
B       -1.41477021      -0.05121079      -1.54368366      -0.00125169      -0.00687054       0.00255671
B       -1.13173838       0.89147346      -3.03047516       0.00406581       0.00197786      -0.00459573
Co       0.00000000       0.00000000       0.00000000       0.87393558      -0.23325020      -0.01271333
H        2.39095896       0.17634748       1.06499020       0.00271659      -0.00395926      -0.00022534
H        2.08563651       1.63906169       3.41565558      -0.00188769      -0.00033335      -0.00033041
H       -0.95790956       2.20131078       3.65732314       0.00133153       0.00045538       0.00047103
H       -2.37460340      -0.53113562       3.62578876       0.00523591       0.00235342      -0.00084712
H        0.24909160      -0.17369593       5.15640712       0.00103747      -0.00048693      -0.00208244
H        2.49361723      -1.31877727       3.29357935       0.00175157      -0.00075649       0.00060218
H        1.22385092      -2.10763829       1.04626851      -0.00300582      -0.00232786       0.00240588
H        0.64520350       2.45717826       1.08644370      -0.00136531       0.00585499      -0.00176614
H       -2.28954063       1.17557124       1.20670200      -0.00029578       0.00196498      -0.00350068
H       -1.66480199      -1.96476688       1.05910984       0.00096100       0.00186916      -0.00203660
H       -0.19266407      -2.68786829       3.39639734      -0.00130474      -0.00002352       0.00056729
H        1.80618140       1.60777290      -1.04760283       0.00005085       0.00307441      -0.00059766
H        2.73684393       0.36113147      -3.36668026      -0.00131866      -0.00092968       0.00078277
H        1.12003192      -2.27476622      -3.59453214       0.00112264       0.00133999      -0.00027453
H       -1.85694939      -1.49945851      -3.66007376       0.00428396       0.00176576       0.00131977
H        0.19476177       0.19766637      -5.15683423       0.00036167       0.00081129       0.00243294
H        0.78834302       2.65442257      -3.30090218      -0.00015304       0.00074166      -0.00027993
H       -0.67520210       2.25029360      -1.09243097      -0.00198332      -0.00056456      -0.00153618
H        2.30852439      -1.21845406      -1.00747826       0.00198562      -0.00471360       0.00139763
H       -0.58363742      -2.53948446      -1.18434211       0.00091417      -0.00174966       0.00430974
H       -2.52041709       0.02261618      -1.12755435       0.00009374      -0.00075525       0.00266269
H       -1.99690082       1.57920249      -3.45278511      -0.00172395      -0.00104424      -0.00031910
