45
Properties=species:S:1:pos:R:3:forces:R:3 charge=-1 spin=1 energy=-54314.483363168416 free_energy=-54314.483363168416 stress="0.9674883484840393 0.2211868017911911 -0.12201709300279617 0.2211868017911911 0.9475209712982178 -1.3816853761672974 -0.12201709300279617 -1.3816853761672974 1.3802462816238403" pbc="F F F"
C        1.32159024      -0.56240308       1.55400000      -0.33178478       0.17175199       0.08550059
B        1.49020315       0.27140085       3.02078092      -0.00006590      -0.00464107       0.00732553
B        0.07293343       1.33252566       3.10460987       0.00179983      -0.00113312       0.00225258
B       -1.37093420       0.30581754       3.07529802       0.00132353       0.00359739      -0.00000965
B        0.08297063      -0.21930030       3.97960204      -0.00310891       0.00172639       0.00129529
B        0.93851692      -1.40444554       2.96800937       0.00044397       0.00023539       0.00109856
C        0.02743267      -1.49335108       1.56400000       0.13226537       0.48121503      -0.55823994
B        0.91321141       1.09217539       1.56259740      -0.00199385       0.00158048       0.00243352
B       -0.86826161       1.14881420       1.58733184      -0.00332347      -0.00210016      -0.00181463
B       -1.38881475      -0.56051730       1.50668349      -0.00608813       0.00391207       0.00268034
B       -0.83565965      -1.37244666       2.99994018       0.00661020       0.00027182       0.00590329
C        1.14300000       0.92400000      -1.55300000      -0.42149743      -0.35539481       0.14964411
B        1.61200428       0.17559683      -2.99150532      -0.00105937       0.00365996      -0.00724597
B        0.64184325      -1.30354294      -3.07595921       0.00287116       0.00191123      -0.00145358
B       -1.06613600      -0.83673585      -3.10346950       0.00273481      -0.00288892      -0.00036985
B        0.14276716       0.14745322      -3.98296303      -0.00316339      -0.00217546      -0.00163642
B        0.51515231       1.56100044      -2.97337769       0.00218514      -0.00022776      -0.00189785
C       -0.40000000       1.32300000      -1.56800000       0.13217936       0.13624525       0.36307198
B        1.30335405      -0.76517916      -1.51950293      -0.00155464      -0.00145457      -0.00219099
B       -0.34575961      -1.43180169      -1.58415991      -0.00430603       0.00126452       0.00155801
B       -1.43181107      -0.01798784      -1.55698963      -0.00441019      -0.00652474      -0.00159416
B       -1.13649454       0.92398507      -3.03780154       0.00676678       0.00272718      -0.00541877
Co       0.00000000       0.00000000       0.00000000       0.50268286      -0.43645057      -0.04002729
H        2.20087087      -0.95127075       1.07165669       0.00104825      -0.00430413      -0.00431942
H        2.58038333       0.49082385       3.42605604       0.00049951       0.00158487       0.00482854
H        0.13063839       2.37113135       3.67273228      -0.00173694       0.00020840      -0.00100690
H       -2.37854453       0.58729374       3.63243650       0.00097682      -0.00186293      -0.00043294
H        0.12277284      -0.29740125       5.16231823      -0.00026119       0.00215561      -0.00066058
H        1.59462094      -2.33460087       3.28536318      -0.00079895       0.00222676       0.00402716
H        0.09966103      -2.43572232       1.04806573       0.00040837      -0.00560640      -0.00444129
H        1.67802436       1.89798532       1.13417038      -0.00171248      -0.00111630       0.00012272
H       -1.52412885       2.06946820       1.21274069      -0.00216634       0.00004088      -0.00044682
H       -2.38320501      -1.01940118       1.05902742      -0.00245063      -0.00098715      -0.00367393
H       -1.41399481      -2.32907194       3.38757742       0.00219078       0.00207344       0.00369553
H        1.81651032       1.59418635      -1.04883292       0.00044076       0.00523788       0.00444821
H        2.72115689       0.33499706      -3.37258122       0.00122760      -0.00079362      -0.00456249
H        1.06749215      -2.26882321      -3.61616068      -0.00189227      -0.00057042       0.00046988
H       -1.89942913      -1.45311813      -3.67828457      -0.00019648       0.00208929       0.00047344
H        0.18119924       0.22535144      -5.16568487       0.00070680      -0.00179762       0.00015795
H        0.80319191       2.66269816      -3.28842736       0.00062249      -0.00153128      -0.00347632
H       -0.66925326       2.25100812      -1.09053180      -0.00111549       0.00573910       0.00253700
H        2.28154669      -1.26286849      -1.05905517      -0.00316802       0.00074387      -0.00056472
H       -0.65080853      -2.51811379      -1.20400483      -0.00142908      -0.00027279       0.00153222
H       -2.53464636       0.08400080      -1.14197406      -0.00320251       0.00034582       0.00424360
H       -1.99155982       1.63104032      -3.44829607       0.00250209      -0.00071078      -0.00381543
