45
Properties=species:S:1:pos:R:3:forces:R:3 charge=-1 spin=1 energy=-242.2356719970703 free_energy=-242.2356719970703 stress="-4.345536552818885e-08 1.2652069614205175e-08 -3.604151999070382e-08 1.2652069614205175e-08 -1.0672551553625453e-07 2.9027551917693017e-08 -3.604151999070382e-08 2.9027551917693017e-08 -2.0471587447445927e-07" pbc="F F F"
C        0.60818331       1.30115758       1.55400000       0.06036901       0.24472694       0.27816823
B       -0.20438833       1.50524996       3.02390312      -0.00073190      -0.00085438       0.00014436
B       -1.33235189       0.15033781       3.06854141      -0.00059649      -0.00081851      -0.00319496
B       -0.36192764      -1.34853163       3.04432348      -0.00064529       0.00153661       0.00012709
B        0.21552917       0.07397583       3.96536438       0.00298373      -0.00060267      -0.00094658
B        1.42807929       0.86654171       3.02521190      -0.00358700      -0.00076089       0.00445528
C        1.49339876      -0.02470124       1.56400000       0.00960544      -0.12499750       0.11519183
B       -1.04514404       0.99755849       1.53781100      -0.00221974       0.00067011       0.00061642
B       -1.18249147      -0.79311364       1.55683884      -0.00124571      -0.00262451       0.00572461
B        0.50658528      -1.39075917       1.48724274       0.00237089       0.00438210      -0.00774555
B        1.34166054      -0.88006070       3.00617082      -0.00410603      -0.00030575       0.00569786
C        1.14300000       0.92400000      -1.55300000       0.12287050       0.03984922      -0.20544699
B        1.61297993       0.19183552      -2.99807317      -0.00049799      -0.00187290      -0.00020184
B        0.67733027      -1.30151240      -3.03505359      -0.00137068      -0.00137503       0.00366131
B       -1.05050425      -0.85403229      -3.06053525       0.00151913      -0.00091000       0.00062437
B        0.13778709       0.13398256      -3.96284671      -0.00110244       0.00191819       0.00134424
B        0.49551374       1.54092510      -3.02738699      -0.00147873      -0.00277222      -0.00278600
C       -0.40000000       1.32300000      -1.56800000      -0.21476243       0.22732019      -0.24408934
B        1.35549980      -0.73749124      -1.49868112       0.00082883      -0.00283058      -0.00020264
B       -0.29995293      -1.43466178      -1.54487505      -0.00208580      -0.00190085      -0.00736745
B       -1.40841938      -0.03375489      -1.52142233       0.00177190       0.00284812       0.00721075
B       -1.13793449       0.90968214      -3.03302415       0.00154415      -0.00313155      -0.00390525
Co       0.00000000       0.00000000       0.00000000       0.03245476      -0.36236715       0.04908259
H        1.02071878       2.19972493       1.08323371       0.00347495      -0.00317760       0.00063521
H       -0.39530361       2.60661138       3.43730677      -0.00033207       0.00233766       0.00041744
H       -2.37733749       0.22367573       3.64055207      -0.00102606       0.00057577      -0.00171620
H       -0.71302550      -2.34972539       3.59191201      -0.00186719       0.00080097      -0.00030449
H        0.23276373       0.07209166       5.15507209      -0.00049368      -0.00022062      -0.00181785
H        2.38361930       1.49130511       3.35066244       0.00130463       0.00083165      -0.00030935
H        2.46314488      -0.01832615       1.05855933      -0.00262704      -0.00089508       0.00028115
H       -1.79943940       1.80015112       1.07028444       0.00209359      -0.00354614      -0.00398368
H       -2.14044373      -1.39668815       1.17041574      -0.00125017      -0.00292353       0.00178926
H        0.92917567      -2.40533530       1.01949371       0.00232448      -0.00236287       0.00030416
H        2.26001279      -1.52764941       3.40298322       0.00112021      -0.00054851       0.00053158
H        1.85489110       1.60127353      -1.07053795      -0.00372632       0.00220270      -0.00058596
H        2.72520148       0.34432536      -3.39764144       0.00274327      -0.00065045       0.00020172
H        1.08742846      -2.27809201      -3.58494532       0.00060596      -0.00179818       0.00375731
H       -1.87455676      -1.50828880      -3.62473959       0.00172278      -0.00241508       0.00154231
H        0.15374818       0.13966089      -5.15258958       0.00070766      -0.00247262       0.00276993
H        0.78495135       2.64425176      -3.35657271       0.00059935       0.00043917      -0.00055349
H       -0.71129564       2.25807986      -1.09084866       0.00054958      -0.00031008      -0.00127225
H        2.33682922      -1.19906573      -0.99729503      -0.00271031       0.00064864       0.00282115
H       -0.56711699      -2.52787195      -1.14143086      -0.00281023      -0.00291627       0.00069248
H       -2.51849694       0.05235388      -1.08554860      -0.00215594       0.00164730      -0.00015720
H       -2.02803626       1.58445018      -3.44880952      -0.00013566      -0.00037365      -0.00120524
