45
Properties=species:S:1:pos:R:3:forces:R:3 charge=-1 spin=1 energy=-54314.56148435372 free_energy=-54314.56148435372 stress="0.7345597147941589 0.5595282912254333 -0.9210573434829712 0.5595282912254333 1.0293428897857666 -1.4564684629440308 -0.9210573434829712 -1.4564684629440308 2.099914073944092" pbc="F F F"
C        0.51349481      -1.34135047       1.55400000      -0.08939725       0.25698996      -0.20229039
B        1.23305262      -0.89058615       3.01762433       0.00019516       0.00008047      -0.00134605
B        1.01625722       0.86499659       3.11010901       0.00231439       0.00011139      -0.00172241
B       -0.72374555       1.19525010       3.09378372       0.00264177      -0.00045835       0.00046590
B       -0.09422684      -0.22199122       3.98395802       0.00190340      -0.00080621      -0.00010848
B       -0.35945937      -1.65571149       2.96401704      -0.00014492      -0.00065307       0.00012156
C       -1.05517053      -1.05710224       1.56400000       0.28659964       0.38565895      -0.49416879
B        1.42150724       0.09862198       1.55611883       0.00768586      -0.00078666      -0.00556025
B        0.22756959       1.41517448       1.59998297       0.00079968      -0.00071319      -0.00027055
B       -1.36280464       0.61576097       1.53185616       0.00797256      -0.00170234       0.00514594
B       -1.56713020      -0.35465978       3.00770946       0.00052303      -0.00050843       0.00091806
C        1.14300000       0.92400000      -1.55300000      -0.35234559      -0.26706138       0.49653518
B        1.62063481       0.16436705      -2.97547374       0.00019440       0.00024515       0.00088017
B        0.66011142      -1.31919185      -3.05383112       0.00224355      -0.00078800       0.00099419
B       -1.04965248      -0.85969477      -3.10183997       0.00211399      -0.00056132      -0.00099781
B        0.15758583       0.12407294      -3.97560274       0.00181828      -0.00013477      -0.00020144
B        0.51616261       1.54891841      -2.97387868       0.00007316       0.00060784      -0.00028098
C       -0.40000000       1.32300000      -1.56800000      -0.04186528      -0.03396242       0.15487975
B        1.31071194      -0.76504975      -1.48815260       0.00706599      -0.00205024       0.00511262
B       -0.33277106      -1.43552091      -1.57113315       0.00058170       0.00008304      -0.00073163
B       -1.42585014      -0.03235179      -1.57184060       0.00817534      -0.00166656      -0.00536769
B       -1.13177584       0.90542689      -3.04383475       0.00051675       0.00035386      -0.00088840
Co       0.00000000       0.00000000       0.00000000       0.15068135      -0.33206868       0.04804837
H        0.84144633      -2.23563055       1.05026442       0.00166950       0.00058395       0.00040941
H        2.14775388      -1.52424592       3.42007624      -0.00158373       0.00002320      -0.00004451
H        1.80756251       1.54020584       3.67790362       0.00099479       0.00008128       0.00147110
H       -1.21756272       2.11500456       3.65577213       0.00113265      -0.00159209      -0.00113117
H       -0.11748542      -0.31210222       5.16629787      -0.00046416      -0.00053998      -0.00025935
H       -0.57070719      -2.77418790       3.28052059      -0.00205384      -0.00024884       0.00017055
H       -1.68271300      -1.76089387       1.04245641      -0.00016792      -0.00100719      -0.00016244
H        2.52641927       0.11561797       1.12103109      -0.00112737      -0.00312189      -0.00366291
H        0.43625750       2.52610536       1.21864177       0.00210940       0.00307232       0.00058201
H       -2.36942062       1.03296267       1.06591729      -0.00117447       0.00221985       0.00601329
H       -2.65452107      -0.60486045       3.40214993      -0.00013660       0.00017161      -0.00029788
H        1.80926949       1.59289797      -1.03410931       0.00236572      -0.00181924      -0.00057652
H        2.73002159       0.32521123      -3.35431597      -0.00096953       0.00049030       0.00037016
H        1.09347123      -2.28578412      -3.58520335       0.00099228      -0.00103138      -0.00094604
H       -1.87815941      -1.48346809      -3.67635970       0.00143974       0.00035565       0.00133557
H        0.20516583       0.19355799      -5.15854987      -0.00012460       0.00019843      -0.00019597
H        0.80671933       2.64615691      -3.30141378      -0.00172594       0.00104810      -0.00014935
H       -0.67136787       2.25200550      -1.09303752       0.00018246       0.00095780      -0.00023913
H        2.27885500      -1.25709231      -1.00762728      -0.00069453       0.00409115       0.00347340
H       -0.63370775      -2.51781498      -1.16938223       0.00150216      -0.00215023      -0.00024302
H       -2.52689378       0.04555319      -1.14147780      -0.00177260      -0.00184819      -0.00541223
H       -1.98583994       1.60440414      -3.47095163      -0.00074035      -0.00014343       0.00032820
