45
Properties=species:S:1:pos:R:3:forces:R:3 charge=-1 spin=1 energy=-54314.52067472237 free_energy=-54314.52067472237 stress="0.21355360746383667 0.07794149965047836 0.04295763745903969 0.07794149965047836 0.13667143881320953 0.06295912712812424 0.04295763745903969 0.06295912712812424 -0.4737406373023987" pbc="F F F"
C        1.04786887      -1.01629447       1.47136181      -0.01293514      -0.01712340       0.04368507
B        1.55940878      -0.38087461       2.95832369      -0.00064779      -0.00629075      -0.00689021
B        0.65933209       1.13328024       3.12610099       0.00338015      -0.00870587       0.00477969
B       -1.06422424       0.73645162       3.13019773      -0.00319914       0.00092459      -0.00745119
B        0.09498263      -0.34524775       3.95347058       0.00145213      -0.00619736      -0.00580957
B        0.40478872      -1.71323521       2.86253897      -0.00347066      -0.00079266       0.00773179
C       -0.49821939      -1.36940761       1.47159570       0.00188750       0.00383142       0.00756084
B        1.30773932       0.65430014       1.54238699       0.00064656      -0.00080423       0.03961236
B       -0.31217074       1.37063979       1.63600000      -0.03012689       0.16415273       0.03839597
B       -1.46328776       0.02134614       1.54928905       0.00005318      -0.02094464      -0.01501168
B       -1.21638465      -1.01667051       2.96767538       0.00128693       0.00417951       0.00610066
C        1.06017409       0.98604944      -1.46557277      -0.01279686       0.01886732      -0.03982576
B        1.60209101       0.32549092      -2.93185571      -0.00130407       0.00687465       0.00682712
B        0.72254776      -1.20284915      -3.08792777       0.00231726       0.01017639      -0.00721192
B       -1.00503718      -0.82615584      -3.12931284      -0.00341874       0.00001722       0.00708825
B        0.15684438       0.25375373      -3.95135058       0.00030485       0.00771401       0.00581623
B        0.43195948       1.64647603      -2.88191158      -0.00242427       0.00092065      -0.00624947
C       -0.49200916       1.32271253      -1.49904579       0.00161288      -0.00434359       0.00192375
B        1.33561369      -0.68607667      -1.50359887       0.00064453       0.00031427      -0.04710494
B       -0.27500000      -1.43300000      -1.61500000       0.03896974       0.08344771      -0.04178574
B       -1.43794268      -0.08668864      -1.56776884      -0.00174849       0.02297861       0.01637023
B       -1.17872494       0.92788436      -3.00090611      -0.00052383      -0.00374111      -0.00460363
Co       0.00000000       0.00000000       0.00000000       0.18272990      -0.28585139      -0.01706363
H        1.70235172      -1.68804149       0.94369986      -0.02649058       0.00464346       0.01732445
H        2.66315207      -0.61281340       3.31788298      -0.01566268      -0.01209111       0.00657294
H        1.11926683       2.05137968       3.71783532       0.00839847      -0.00967915      -0.00305926
H       -1.87584316       1.35687729       3.73071183       0.00732284       0.01110119       0.00588477
H        0.13099682      -0.49174657       5.12997017      -0.00260646       0.00588597      -0.00813384
H        0.66602468      -2.83958984       3.10693600      -0.02191513       0.00688918       0.00878126
H       -0.79685614      -2.26102554       0.94632389      -0.01040296       0.01267423       0.01361582
H        2.30857047       1.12259513       1.10238411      -0.00654619      -0.01703412       0.01093357
H       -0.57077754       2.49001190       1.31567264       0.00443426      -0.00950856       0.00167417
H       -2.56973873       0.00983917       1.13416771      -0.00483578       0.00437695      -0.00141974
H       -2.10104714      -1.70914450       3.33942711      -0.00416464       0.01750617       0.00878998
H        1.70015634       1.67397224      -0.94038802      -0.02341514      -0.00200901      -0.01554109
H        2.70984734       0.56139667      -3.27627940      -0.01736846       0.01357441      -0.00727877
H        1.20731274      -2.12474345      -3.65363605       0.00575232       0.01261877      -0.00061869
H       -1.79975300      -1.46428486      -3.73401444       0.00518187      -0.00756064      -0.00555540
H        0.21245172       0.37825936      -5.12957625      -0.00522030      -0.00041293       0.00847148
H        0.68482553       2.76980244      -3.14783746      -0.02204540      -0.00424021      -0.00414810
H       -0.81066827       2.22230650      -0.99910207      -0.01148053      -0.00921338      -0.00901582
H        2.33689120      -1.13227398      -1.04220536      -0.01231335       0.01718607      -0.01275325
H       -0.52453339      -2.54824613      -1.27685453       0.00324633       0.01301050      -0.00185425
H       -2.55165741      -0.07931104      -1.17260614      -0.00617916      -0.00408107       0.00391418
H       -2.06399462       1.60129492      -3.40441440      -0.00637914      -0.01324099      -0.00346835
