45
Properties=species:S:1:pos:R:3:forces:R:3 charge=-1 spin=1 energy=-54314.5377206971 free_energy=-54314.5377206971 stress="0.9597726464271545 0.019309591501951218 0.14266718924045563 0.019309591501951218 1.1605775356292725 -1.4849729537963867 0.14266718924045563 -1.4849729537963867 1.7212960720062256" pbc="F F F"
C        1.42541338      -0.17633690       1.55400000      -0.27869269       0.02824550       0.01487652
B        1.36287299       0.67734961       3.01618070       0.00076541      -0.00142474      -0.00006041
B       -0.28705897       1.31987231       3.09114858       0.00132300      -0.00091535       0.00331235
B       -1.40330351      -0.05753943       3.06099735       0.00054631      -0.00174783      -0.00106083
B        0.13456305      -0.17126430       3.97122884      -0.00178577       0.00232193       0.00056611
B        1.28200643      -1.08712087       2.96877112      -0.00006211       0.00101548       0.00208040
C        0.43799332      -1.42793972       1.56400000      -0.14786072       0.60356647      -0.58037162
B        0.58947031       1.30599951       1.55146571      -0.00205251       0.00211416      -0.00184810
B       -1.14169267       0.88636026       1.57248938      -0.00262130      -0.00437126       0.00167290
B       -1.18587295      -0.90132550       1.49486299      -0.00113459       0.00075799      -0.00029466
B       -0.43687146      -1.53265637       2.99256443       0.00356365       0.00041115       0.00523873
C        1.14300000       0.92400000      -1.55300000      -0.40220925      -0.28702438       0.20541203
B        1.61728343       0.17127667      -2.98660396      -0.00060352       0.00166177      -0.00025367
B        0.65676669      -1.31468196      -3.05921906       0.00044444       0.00094092      -0.00300080
B       -1.05602767      -0.85946038      -3.08439747       0.00021934       0.00075572       0.00031245
B        0.14420446       0.12779963      -3.97269323      -0.00013321      -0.00326044      -0.00071081
B        0.51084177       1.55097379      -2.97484872       0.00153005      -0.00159811      -0.00217179
C       -0.40000000       1.32300000      -1.56800000       0.06811301      -0.01647027       0.39238682
B        1.31355647      -0.76196072      -1.50711890      -0.00070490      -0.00310287       0.00155317
B       -0.32877047      -1.44333776      -1.56513930      -0.00489848       0.00248636      -0.00082994
B       -1.42594071      -0.03602528      -1.54037104      -0.00155585      -0.00174051      -0.00156889
B       -1.13837247       0.90237873      -3.02823767       0.00318731       0.00156454      -0.00576733
Co       0.00000000       0.00000000       0.00000000       0.76541805      -0.32456645      -0.02767406
H        2.37751061      -0.31639272       1.06937481      -0.00163307      -0.00253017      -0.00142606
H        2.35404036       1.18056405       3.42385727      -0.00059932      -0.00005446       0.00229383
H       -0.51384340       2.33634036       3.65692959      -0.00050784       0.00138897      -0.00042432
H       -2.45033723      -0.05729129       3.61653480       0.00242402       0.00037694      -0.00079548
H        0.18839468      -0.23251380       5.15436748       0.00023831       0.00110093      -0.00086092
H        2.16352134      -1.80284544       3.29669262      -0.00122157      -0.00038207       0.00151127
H        0.76289633      -2.31466295       1.04546692       0.00043981       0.00015327       0.00050643
H        1.10925445       2.27983012       1.10151102       0.00293787       0.00051535      -0.00224672
H       -2.01542007       1.59807412       1.19043209      -0.00033119       0.00004719      -0.00027107
H       -2.02204043      -1.60509238       1.03933663      -0.00117404       0.00025388       0.00167415
H       -0.74004226      -2.60618358       3.38705039      -0.00006167       0.00012890       0.00316357
H        1.81176837       1.60147963      -1.04860630      -0.00186034       0.00112913       0.00001683
H        2.72453406       0.33794806      -3.37147501      -0.00106991      -0.00074334      -0.00271501
H        1.08571501      -2.28030300      -3.59622774       0.00007689      -0.00150222       0.00020491
H       -1.88643316      -1.48227057      -3.65646945       0.00162620       0.00120383       0.00117304
H        0.17845535       0.19849441      -5.15600248       0.00057285      -0.00116208       0.00080769
H        0.79315689       2.65099864      -3.30170750      -0.00156471      -0.00118948      -0.00174371
H       -0.67177979       2.25085444      -1.09069113       0.00072321       0.00060796      -0.00112845
H        2.28807041      -1.24822083      -1.02353465       0.00158254       0.00213826       0.00301285
H       -0.61950071      -2.52800103      -1.17224270      -0.00006538      -0.00036378       0.00023882
H       -2.52719825       0.05433619      -1.11543942      -0.00077487      -0.00045873      -0.00106679
H       -1.99832338       1.59934422      -3.44588111      -0.00055331      -0.00027779      -0.00372339
