45
Properties=species:S:1:pos:R:3:forces:R:3 charge=-1 spin=1 energy=-54314.47635747689 free_energy=-54314.47635747689 stress="1.619675636291504 0.2599335014820099 0.41016507148742676 0.2599335014820099 0.45004168152809143 -0.20004503428936005 0.41016507148742676 -0.20004503428936005 1.1143546104431152" pbc="F F F"
C        0.46884362       1.35760217       1.55400000       0.09190045      -0.15857267      -0.06523915
B       -0.37768170       1.48543314       3.00984044       0.00254402       0.00239669      -0.00053276
B       -1.36043703       0.01414258       3.07206501       0.00335300      -0.00013850       0.00289181
B       -0.25309900      -1.36792563       3.05072675       0.00688782      -0.00323612      -0.00623989
B        0.18306870       0.10518913       3.96635736      -0.00412487       0.00353330      -0.00112353
B        1.33140148       1.02815556       2.97164771       0.00077114      -0.00005561       0.00052292
C        1.48779975       0.13153675       1.56400000      -0.71167606      -0.00069225      -0.31024328
B       -1.15919152       0.87032071       1.53462831       0.00064650      -0.00279393      -0.00226571
B       -1.11418525      -0.91438492       1.54627009       0.00467181      -0.00277545      -0.00128278
B        0.62591804      -1.33988600       1.49390267      -0.00329343      -0.00246797      -0.00000729
B        1.39684948      -0.74332063       2.99724323      -0.00221342      -0.00102917       0.00195184
C        1.14300000       0.92400000      -1.55300000      -0.48966295      -0.18707974       0.10305281
B        1.61214446       0.16830782      -2.98384021       0.00096535       0.00207215       0.00188840
B        0.66056450      -1.32384732      -3.02768731      -0.00120620       0.00200882      -0.00206091
B       -1.05276593      -0.87624440      -3.05113288      -0.00427323       0.00425556       0.00405429
B        0.13491055       0.10642880      -3.95918174       0.00419680      -0.00253775       0.00138931
B        0.50022749       1.54361855      -2.98042564      -0.00011363      -0.00021539      -0.00099440
C       -0.40000000       1.32300000      -1.56800000       0.11360706      -0.05740769       0.20536301
B        1.33098584      -0.75861469      -1.48730248      -0.00295237      -0.00057301       0.00152930
B       -0.31776087      -1.44756485      -1.51867317      -0.00339401       0.00184327       0.00056594
B       -1.42036168      -0.04039287      -1.51662158      -0.00093767      -0.00210769       0.00011219
B       -1.14466055       0.88574556      -3.01949894      -0.00023439      -0.00270572      -0.00122538
Co       0.00000000       0.00000000       0.00000000       0.97976065       0.38815165       0.07139421
H        0.81121641       2.26816931       1.08449995       0.00068505       0.00539943      -0.00301554
H       -0.65600088       2.56292586       3.41467111      -0.00072036       0.00192105      -0.00153027
H       -2.40329664       0.00375650       3.63426818      -0.00061620       0.00158831      -0.00157044
H       -0.48187608      -2.39246930       3.60045963      -0.00107246       0.00456583       0.00041439
H        0.24676864       0.14265964       5.14991234      -0.00165735       0.00237775      -0.00198227
H        2.21664506       1.74068295       3.30057918       0.00047179       0.00102175       0.00073486
H        2.43216915       0.25626073       1.05966708       0.00683532      -0.00013127      -0.00123364
H       -1.98425587       1.59708699       1.08193825      -0.00070004       0.00109974      -0.00219698
H       -1.99514489      -1.62230406       1.18450661       0.00338935       0.00155320       0.00075113
H        1.13670670      -2.31184946       1.05233337      -0.00155399      -0.00026548       0.00420224
H        2.37724057      -1.27285896       3.39670628      -0.00135632       0.00130440       0.00182927
H        1.81964177       1.61350289      -1.07168094       0.00453437       0.00258504       0.00211244
H        2.71655299       0.33670943      -3.37700433       0.00105116      -0.00207921       0.00191705
H        1.08564949      -2.29342554      -3.55975450       0.00095444      -0.00035922       0.00191396
H       -1.88349558      -1.50945280      -3.61050403       0.00431984       0.00012471      -0.00075901
H        0.16146359       0.16195536      -5.14343202       0.00302709      -0.00160394       0.00218492
H        0.77868622       2.64315839      -3.31652454       0.00016555      -0.00034226      -0.00234091
H       -0.67977848       2.25626204      -1.10446597      -0.00292472       0.00552896      -0.00055817
H        2.31544784      -1.21988557      -1.00756208      -0.00002059      -0.00150028       0.00186853
H       -0.60511684      -2.53358593      -1.13766938      -0.00119419       0.00247298      -0.00077944
H       -2.52278898       0.05220669      -1.09440799       0.00018723      -0.00224748      -0.00298030
H       -2.01224079       1.57317322      -3.43883406       0.00097230      -0.00288682      -0.00248312
