45
Properties=species:S:1:pos:R:3:forces:R:3 charge=-1 spin=1 energy=-54314.455016153035 free_energy=-54314.455016153035 stress="0.6963517665863037 0.30984604358673096 -0.43586307764053345 0.30984604358673096 1.0145756006240845 -1.0819710493087769 -0.43586307764053345 -1.0819710493087769 1.3622599840164185" pbc="F F F"
C        1.04953542      -0.98049651       1.55400000      -0.19249333       0.00288376      -0.10836478
B        1.51444792      -0.27413450       3.01868888      -0.00204906       0.00128888       0.00034678
B        0.56211984       1.21499555       3.11710196       0.00011938      -0.00068579      -0.00140407
B       -1.14795512       0.75699926       3.10355182      -0.00026151       0.00107372       0.00329424
B        0.03523003      -0.24816218       3.99006412      -0.00344094      -0.00190631       0.00031111
B        0.40981560      -1.65193022       2.96475025      -0.00088337       0.00022744      -0.00037216
C       -0.48497787      -1.41267352       1.56400000       0.18896362       0.57006001      -0.34062931
B        1.24954503       0.70178658       1.56312027       0.00129319      -0.00201361      -0.00280574
B       -0.39782058       1.37589765       1.60913079       0.00094453      -0.00161126       0.00135786
B       -1.48569599      -0.04011635       1.53843801      -0.00145608       0.00070938       0.00713141
B       -1.23756891      -1.00356388       3.01710562      -0.00151738      -0.00134408       0.00023825
C        1.14300000       0.92400000      -1.55300000      -0.33558422      -0.06301071       0.36404514
B        1.63614580       0.18768496      -2.98391487      -0.00232586      -0.00115698       0.00016807
B        0.68795409      -1.30217387      -3.07360385       0.00027047       0.00166285       0.00110371
B       -1.02338251      -0.85214590      -3.11948276      -0.00012460      -0.00023488      -0.00446080
B        0.17855774       0.14386983      -3.98709173      -0.00329211       0.00363804      -0.00152116
B        0.52269951       1.56260242      -2.97333064      -0.00050536       0.00084005       0.00050678
C       -0.40000000       1.32300000      -1.56800000       0.05520582      -0.09988443       0.09348220
B        1.32721560      -0.75226431      -1.50804462       0.00108320       0.00217770       0.00404118
B       -0.31216869      -1.43605914      -1.59188558       0.00047861       0.00146679      -0.00196566
B       -1.41620355      -0.03539614      -1.58273301      -0.00049898      -0.00048453      -0.00767394
B       -1.11750215       0.91018004      -3.05359883      -0.00170377       0.00269331      -0.00059294
Co       0.00000000       0.00000000       0.00000000       0.31948051      -0.42458266       0.00212894
H        1.73495990      -1.64588644       1.05835148      -0.00014378       0.00237477      -0.00191538
H        2.61656594      -0.45408954       3.41057101      -0.00256961       0.00125305      -0.00080382
H        0.98420496       2.16577804       3.68498144      -0.00313542      -0.00055454       0.00011545
H       -1.98881697       1.37035428       3.67047313      -0.00444017       0.00004113      -0.00083719
H        0.05664062      -0.34205216       5.17208629      -0.00212429       0.00045489       0.00039688
H        0.70772071      -2.75310231       3.27221701      -0.00025859       0.00104638      -0.00015115
H       -0.74561800      -2.32105380       1.04892105       0.00169498      -0.00017740       0.00014932
H        2.24632053       1.18072444       1.12461225       0.00176717       0.00272525       0.00179443
H       -0.69422480       2.47296435       1.25026704      -0.00058332      -0.00239075       0.00098295
H       -2.58630016      -0.10788828       1.11191369       0.00142943      -0.00328883      -0.00094152
H       -2.11028138      -1.69718178       3.41315793      -0.00191848      -0.00092452      -0.00111225
H        1.80860706       1.59629961      -1.04009518      -0.00002228      -0.00213866       0.00186838
H        2.74732438       0.36237221      -3.35176509      -0.00310510      -0.00052773       0.00051096
H        1.12813026      -2.26414523      -3.60790821      -0.00380552       0.00181885      -0.00165808
H       -1.84553499      -1.47826689      -3.69960628      -0.00488908       0.00142531      -0.00069363
H        0.22753957       0.22141448      -5.16936817      -0.00231902       0.00157576      -0.00214705
H        0.80925433       2.66503209      -3.28639715      -0.00014766       0.00058606       0.00085317
H       -0.67628853       2.25105543      -1.09600059       0.00152046       0.00028829      -0.00004537
H        2.30853098      -1.22502881      -1.03073299       0.00248975      -0.00379247      -0.00288378
H       -0.60683290      -2.52904332      -1.21968972      -0.00129194       0.00191518      -0.00291944
H       -2.52803443       0.04111063      -1.18910646       0.00234446       0.00369462      -0.00000496
H       -1.97694751       1.60330036      -3.47812550      -0.00219474       0.00278904       0.00107694
