45
Properties=species:S:1:pos:R:3:forces:R:3 charge=-1 spin=1 energy=-54314.564894693074 free_energy=-54314.564894693074 stress="0.7477424740791321 0.5727764368057251 -0.9565230011940002 0.5727764368057251 1.0101497173309326 -1.4411171674728394 -0.9565230011940002 -1.4411171674728394 2.1372125148773193" pbc="F F F"
C        0.46636954      -1.35845407       1.55400000      -0.07250031       0.26501438      -0.20400648
B        1.20114953      -0.93313930       3.01785105       0.00086753       0.00236607      -0.00501216
B        1.04562802       0.82901384       3.11023191       0.00262306       0.00058005      -0.00281337
B       -0.68177576       1.21985118       3.09376832       0.00211414      -0.00110021       0.00069311
B       -0.10196485      -0.21847386       3.98397717       0.00051312      -0.00198077      -0.00034241
B       -0.41701255      -1.64214170       2.96398289      -0.00049252      -0.00078679       0.00015842
C       -1.09142009      -1.01963336       1.56400000       0.29794744       0.36750561      -0.50077724
B        1.42424070       0.04921171       1.55615111      -0.00069302      -0.00193178      -0.00452183
B        0.27680990       1.40619290       1.60007236      -0.00191857       0.00162648      -0.00277512
B       -1.34044627       0.66271676       1.53180852       0.00130589       0.00230630       0.00235269
B       -1.57863366      -0.29968656       3.00754907      -0.00014508      -0.00174522       0.00261948
C        1.14300000       0.92400000      -1.55300000      -0.34830493      -0.27396366       0.49887738
B        1.62059527       0.16442069      -2.97570157      -0.00034695      -0.00153784       0.00534155
B        0.65989874      -1.31913867      -3.05391834       0.00282465      -0.00106556       0.00211560
B       -1.04981640      -0.85968125      -3.10182925       0.00171891       0.00033764      -0.00066175
B        0.15751042       0.12403642      -3.97560182       0.00103393       0.00104683      -0.00005606
B        0.51616222       1.54889808      -2.97385691      -0.00035343       0.00110655       0.00029516
C       -0.40000000       1.32300000      -1.56800000      -0.03976554      -0.02713718       0.15597515
B        1.31073027      -0.76541998      -1.48809932      -0.00038967       0.00263158       0.00457787
B       -0.33266381      -1.43542996      -1.57109059      -0.00368985      -0.00031781       0.00027858
B       -1.42567958      -0.03220286      -1.57175116       0.00002212      -0.00215446      -0.00272514
B       -1.13185577       0.90538553      -3.04371508       0.00043091       0.00202152      -0.00183530
Co       0.00000000       0.00000000       0.00000000       0.14473306      -0.32569477       0.05063957
H        0.76280478      -2.26363288       1.05025618       0.00201395      -0.00028020       0.00000959
H        2.09339506      -1.59831587       3.42007483      -0.00358659       0.00146724      -0.00025064
H        1.86016425       1.47614936       3.67779102       0.00071866       0.00084072       0.00252799
H       -1.14304109       2.15629505       3.65585018       0.00004992      -0.00130055      -0.00108019
H       -0.12825778      -0.30779069       5.16628644      -0.00150947      -0.00039195       0.00041686
H       -0.66705508      -2.75255727       3.28050777      -0.00276530      -0.00077810       0.00059370
H       -1.74325539      -1.70116287       1.04236721       0.00177824       0.00100063       0.00129455
H        2.52852802       0.02751802       1.12138784       0.00597755       0.00090133       0.00072767
H        0.52405861       2.50927323       1.21857722       0.00070882       0.00098399      -0.00018602
H       -2.33228644       1.11511373       1.06541392       0.00545420      -0.00291792       0.00071162
H       -2.67393815      -0.51184510       3.40216276      -0.00270330      -0.00033685       0.00047330
H        1.80914555       1.59301448      -1.03406564       0.00223163      -0.00187591      -0.00053599
H        2.73015400       0.32519912      -3.35433422      -0.00352870      -0.00005226       0.00052921
H        1.09343625      -2.28569146      -3.58511836       0.00037013      -0.00189198      -0.00196011
H       -1.87821334      -1.48349316      -3.67644726       0.00051883       0.00027860       0.00159168
H        0.20519194       0.19354573      -5.15850798      -0.00097532       0.00036874      -0.00115288
H        0.80681656       2.64608978      -3.30140194      -0.00201502       0.00175879      -0.00059622
H       -0.67142146       2.25209314      -1.09295216       0.00092926      -0.00137394      -0.00115241
H        2.27849328      -1.25706939      -1.00800449       0.00456207      -0.00327442      -0.00008077
H       -0.63379313      -2.51772851      -1.16936400       0.00024184      -0.00100852       0.00065515
H       -2.52729868       0.04567277      -1.14101201       0.00665615      -0.00036961      -0.00054999
H       -1.98575392       1.60437856      -3.47096429      -0.00266239       0.00112512      -0.00038392
