45
Properties=species:S:1:pos:R:3:forces:R:3 charge=-1 spin=1 energy=-54314.54419805306 free_energy=-54314.54419805306 stress="0.23129186034202576 0.0661391094326973 0.03246428072452545 0.0661391094326973 0.15855653584003448 0.01829349622130394 0.03246428072452545 0.01829349622130394 -0.17887820303440094" pbc="F F F"
C        0.98224858      -1.07972861       1.47054693      -0.01496814      -0.02245189       0.03354728
B        1.53245124      -0.47796308       2.95855112      -0.00029317      -0.00553730      -0.01709520
B        0.72910252       1.08981306       3.12605642       0.00392134      -0.01012516       0.00306221
B       -1.01584808       0.80181141       3.13030815      -0.00467787       0.00286051      -0.00625234
B        0.07308908      -0.35039083       3.95360010       0.00089433      -0.00903642      -0.00883747
B        0.29642236      -1.73529463       2.86249082      -0.00229022       0.00014792      -0.00113490
C       -0.58336810      -1.33549199       1.47147341      -0.00558763       0.00396487       0.00509843
B        1.34624511       0.57091350       1.54163660       0.00533287       0.00006768       0.03280060
B       -0.22549156       1.38753651       1.63600000      -0.01566959       0.15959574       0.04062296
B       -1.45890719       0.11360181       1.54961856       0.00065468      -0.02367763      -0.00897139
B       -1.27786965      -0.93831094       2.96756718      -0.00020708       0.00329634       0.00448620
C        1.06041306       0.98566386      -1.46481651      -0.01329433       0.02434380      -0.03118123
B        1.60212778       0.32541508      -2.93208531      -0.00052375       0.00518068       0.01747092
B        0.72245895      -1.20303688      -3.08785215       0.00403618       0.01125777      -0.00470491
B       -1.00500582      -0.82615600      -3.12941132      -0.00462019      -0.00220233       0.00558569
B        0.15682248       0.25360217      -3.95147637       0.00052668       0.01008940       0.00852708
B        0.43193823       1.64649769      -2.88187079      -0.00065424      -0.00026421       0.00077057
C       -0.49214230       1.32279686      -1.49910234      -0.00471114      -0.00503280       0.00330999
B        1.33560808      -0.68608384      -1.50270587       0.00582110      -0.00128188      -0.03863154
B       -0.27500000      -1.43300000      -1.61500000       0.04442824       0.08678959      -0.04258928
B       -1.43778653      -0.08714699      -1.56811402       0.00073876       0.02532343       0.00951866
B       -1.17873540       0.92791929      -3.00080612      -0.00258248      -0.00356985      -0.00414293
Co       0.00000000       0.00000000       0.00000000       0.18040854      -0.28720158      -0.01727860
H        1.59343211      -1.79175885       0.94341879      -0.02185003       0.00659163      -0.00062277
H        2.61968380      -0.77867708       3.31779057      -0.01952382      -0.01031747       0.00637877
H        1.24575502       1.97719805       3.71789106       0.00777461      -0.01025548      -0.00374029
H       -1.78703682       1.47180342       3.73060326       0.00590040       0.01299595       0.00810614
H        0.09989360      -0.49909642       5.13009594      -0.00245136       0.00645794      -0.00884062
H        0.48673162      -2.87598174       3.10682601      -0.02261908       0.01211271       0.00838497
H       -0.93710370      -2.20676911       0.94610939      -0.01075360       0.01246517       0.00824409
H        2.37459566       0.97565178       1.10224183      -0.01383548      -0.01249330      -0.00607071
H       -0.41336479       2.52114384       1.31562892       0.00601048      -0.01223056      -0.00611681
H       -2.56406023       0.17108326       1.13415357      -0.00325510       0.01324093      -0.00875348
H       -2.20418608      -1.57412238       3.33930773      -0.00266125       0.01913260       0.00867521
H        1.70053919       1.67404783      -0.94014315      -0.01994831      -0.00192080      -0.00000095
H        2.71013363       0.56121194      -3.27617787      -0.02111729       0.01304679      -0.00685111
H        1.20723517      -2.12492892      -3.65364141       0.00549866       0.01302957       0.00018466
H       -1.79980623      -1.46415066      -3.73391231       0.00285803      -0.00969432      -0.00781203
H        0.21252799       0.37827219      -5.12970737      -0.00551734      -0.00078734       0.00917510
H        0.68515667       2.76990992      -3.14779446      -0.02323692      -0.00741407      -0.00366307
H       -0.81048619       2.22248376      -0.99895349      -0.01222475      -0.00916831      -0.00578356
H        2.33706140      -1.13251573      -1.04203541      -0.01993165       0.01303416       0.00864318
H       -0.52459428      -2.54851825      -1.27680143       0.00605547       0.01652003       0.00826587
H       -2.55164206      -0.07922420      -1.17263052      -0.00525240      -0.01276170       0.01167318
H       -2.06390637       1.60150057      -3.40437102      -0.00660200      -0.01412113      -0.00345643
