45
Properties=species:S:1:pos:R:3:forces:R:3 charge=-1 spin=1 energy=-54314.53093435067 free_energy=-54314.53093435067 stress="1.0289275646209717 0.1356097012758255 0.09200964123010635 0.1356097012758255 1.0295497179031372 -1.5634559392929077 0.09200964123010635 -1.5634559392929077 1.8646142482757568" pbc="F F F"
C        1.40964050      -0.27533916       1.55400000      -0.34149131       0.09324471       0.05910464
B        1.40045296       0.57941975       3.01878341      -0.00032474       0.00023972      -0.00149304
B       -0.20547731       1.32661468       3.09530411       0.00077176       0.00199991       0.00019521
B       -1.40855302       0.02469739       3.06364213       0.00115899       0.00152018       0.00013344
B        0.11968457      -0.18884673       3.97338558      -0.00147945       0.00314762      -0.00144800
B        1.20519160      -1.17514123       2.96887033      -0.00190954       0.00136321      -0.00012038
C        0.33731835      -1.45501420       1.56400000      -0.03087897       0.54006922      -0.60661006
B        0.66939829       1.26005931       1.55569330       0.00022441       0.00144987      -0.00048676
B       -1.08616717       0.95183690       1.57601350      -0.00091552       0.00168513       0.00065445
B       -1.24559530      -0.82782249       1.49543774       0.00230173      -0.00246396       0.00501069
B       -0.53902463      -1.50822833       2.99348791       0.00018772       0.00092065       0.00283487
C        1.14300000       0.92400000      -1.55300000      -0.42439407      -0.35274866       0.16601935
B        1.61239288       0.17047850      -2.98952953      -0.00074359      -0.00082479       0.00201778
B        0.64359054      -1.31065441      -3.06574642       0.00156704      -0.00189826       0.00106054
B       -1.06664571      -0.84738507      -3.09003360       0.00199664      -0.00114966      -0.00033477
B        0.13926749       0.13596802      -3.97617721       0.00006637      -0.00430833       0.00171564
B        0.51281660       1.55463944      -2.97455744      -0.00079243      -0.00298299       0.00045596
C       -0.40000000       1.32300000      -1.56800000       0.09618080       0.08282040       0.41236320
B        1.30494227      -0.76541719      -1.51249855       0.00061155      -0.00088941       0.00120959
B       -0.34200462      -1.43780933      -1.57138803       0.00054534      -0.00140379       0.00049054
B       -1.43138315      -0.02642682      -1.54335434       0.00039160       0.00303168      -0.00685233
B       -1.13931178       0.91374520      -3.03037288       0.00054478      -0.00085933      -0.00255602
Co       0.00000000       0.00000000       0.00000000       0.67067248      -0.36855730      -0.03663316
H        2.34941200      -0.47875546       1.06923008       0.00620419       0.00299694      -0.00074439
H        2.42069123       1.01811040       3.42937064      -0.00057873      -0.00146550      -0.00278989
H       -0.36625143       2.35477885       3.66247968       0.00209986       0.00333201      -0.00097071
H       -2.45311358       0.09153353       3.61977120       0.00118276       0.00396683      -0.00181912
H        0.17022240      -0.25499693       5.15651175      -0.00077291       0.00150882      -0.00329420
H        2.03681639      -1.94919187       3.29494818      -0.00314713       0.00213327      -0.00169854
H        0.60275604      -2.36130308       1.04548659       0.00061225      -0.00346077      -0.00159867
H        1.25015501       2.20160041       1.11219821       0.00221061      -0.00110640      -0.00049615
H       -1.91376517       1.71770339       1.19465815       0.00515669       0.00127985      -0.00058931
H       -2.12374905      -1.47809374       1.03914244       0.00203566       0.00416124       0.00051403
H       -0.90882746      -2.56132373       3.38626440      -0.00301758       0.00065140      -0.00137603
H        1.81301054       1.59869009      -1.04779994       0.00619337       0.00110858       0.00194811
H        2.71990090       0.33093000      -3.37640203      -0.00199056       0.00050357       0.00277804
H        1.06763844      -2.27714427      -3.60499991       0.00295239      -0.00200911       0.00128453
H       -1.90020503      -1.46440764      -3.66370930       0.00223051      -0.00283114       0.00242539
H        0.17455868       0.20937260      -5.15943198      -0.00071442      -0.00213503       0.00406208
H        0.79786239       2.65497640      -3.29829066      -0.00185647      -0.00416675       0.00138864
H       -0.66885273       2.25143270      -1.09010974      -0.00165868       0.00232406       0.00156941
H        2.27810892      -1.25978907      -1.03533482       0.00228770       0.00111464       0.00026634
H       -0.64059064      -2.52178365      -1.18102012       0.00503581       0.00270610       0.00052735
H       -2.53212888       0.07152772      -1.11865601       0.00395588      -0.00203381       0.00019586
H       -1.99467853       1.61743915      -3.44623479      -0.00271272      -0.00198445       0.00168591
