45
Properties=species:S:1:pos:R:3:forces:R:3 charge=-1 spin=1 energy=-242.328857421875 free_energy=-242.328857421875 stress="2.235344354062363e-08 -5.109323630847484e-09 -2.2626391427138515e-08 -5.109323630847484e-09 1.1697657953391172e-08 4.925764329755111e-08 -2.2626391427138515e-08 4.925764329755111e-08 3.3336789329041494e-08" pbc="F F F"
C        1.33680701      -0.63705719       1.59326242       0.01193459       0.00176084       0.00611317
B        1.55058945       0.16551240       3.05053320       0.00011812       0.00945518       0.01136085
B        0.18743065       1.29391254       3.11041568      -0.00623338      -0.00107946       0.00350107
B       -1.30887632       0.32286206       3.10682682       0.00125360      -0.00454647      -0.00549337
B        0.12977104      -0.26462534       4.00192219      -0.00745228       0.00132152      -0.00172665
B        0.91056818      -1.46956621       3.03623150      -0.00342014      -0.00031716       0.02018335
C       -0.00874194      -1.50875638       1.58322086      -0.01637244      -0.01383913      -0.01875693
B        0.99999913       1.01045944       1.56137024       0.00971565       0.01617342      -0.00856116
B       -0.79481517       1.15947093       1.63600000       0.12257850       0.00403878      -0.10050739
B       -1.35893165      -0.52420303       1.51840571      -0.02674058      -0.01211524      -0.02495641
B       -0.83624625      -1.37979942       3.04174954      -0.00692136      -0.00091588       0.00697626
C        1.13056382       0.97124007      -1.58438132       0.00728908       0.00987238       0.00197405
B        1.62348572       0.25112472      -3.01910438       0.00537054      -0.00441249      -0.00860660
B        0.70499111      -1.25800768      -3.07121850      -0.00324886      -0.00075902      -0.00339889
B       -1.02484808      -0.82658170      -3.10660379       0.00282378       0.00183854       0.00515050
B        0.16003217       0.18156384      -3.99958222      -0.00353042      -0.00426969       0.00276319
B        0.49394348       1.59140634      -3.05428851      -0.00495382       0.00302441      -0.01892307
C       -0.42429787       1.36314887      -1.61781925      -0.02396616       0.01463822       0.02001718
B        1.34197729      -0.69119534      -1.51239641       0.01652107      -0.00911063       0.00874977
B       -0.27500000      -1.43300000      -1.61500000      -0.01787740       0.14654422       0.07248209
B       -1.38559609      -0.00886683      -1.55669167      -0.03606766      -0.00081173       0.02341683
B       -1.13361011       0.94185590      -3.08077536      -0.00788405      -0.00632928      -0.01008443
Co       0.00000000       0.00000000       0.00000000      -0.04670931      -0.15343741       0.02499277
H        2.21034681      -1.03483366       1.07247831       0.01972511      -0.01216928       0.02980699
H        2.65594620       0.36754481       3.45048185      -0.01050618      -0.00064849       0.00487037
H        0.28177937       2.33569219       3.68500591      -0.00726530       0.00046575       0.00492147
H       -2.29972139       0.66280463       3.68062024      -0.00236945      -0.01041015      -0.01016200
H        0.14628643      -0.29059382       5.19204854      -0.00279181      -0.00273648       0.00143865
H        1.53185621      -2.43364251       3.34379906       0.00196242      -0.00304881       0.00380158
H       -0.00546791      -2.46313143       1.05020176       0.00380992       0.00333806      -0.00476347
H        1.81014868       1.77581356       1.12362903      -0.01824244      -0.00397294       0.01090448
H       -1.40030562       2.10725307       1.22745371      -0.00231089       0.00824490      -0.01503064
H       -2.39176134      -0.94541663       1.08422422       0.03522410       0.00667284      -0.00481282
H       -1.48094925      -2.30331311       3.43311462      -0.00272231      -0.00240359      -0.00567110
H        1.81939119       1.63863184      -1.06104395       0.00261286       0.01868825      -0.01717670
H        2.74248856       0.40569243      -3.40066867      -0.00390467       0.00670331       0.00099242
H        1.14230121      -2.21994914      -3.62575158       0.00095115      -0.00241518      -0.00063731
H       -1.84283781      -1.47871415      -3.68270058       0.00133504       0.00401960       0.00745738
H        0.18431675       0.19102055      -5.18978854       0.00469761      -0.00190668       0.00015543
H        0.78034668       2.69736364      -3.37799687      -0.00431397       0.00456959      -0.00210270
H       -0.74186749       2.28084859      -1.11388387      -0.00377491      -0.00383723      -0.00185369
H        2.34575148      -1.14030430      -1.04037124      -0.01375946       0.00416575      -0.02351471
H       -0.55893832      -2.51094733      -1.18209590       0.00295937      -0.00632915       0.01295549
H       -2.50941819       0.05635369      -1.14861643       0.03516690       0.00109782       0.00299162
H       -2.03247089       1.60159081      -3.50345212      -0.00271057      -0.00481203      -0.00123675
