45
Properties=species:S:1:pos:R:3:forces:R:3 charge=-1 spin=1 energy=-54314.47917272347 free_energy=-54314.47917272347 stress="-0.23606456816196442 -0.10180586576461792 -0.34809643030166626 -0.10180586576461792 -0.024503877386450768 0.3949268162250519 -0.34809643030166626 0.3949268162250519 2.117068290710449" pbc="F F F"
C        0.40019384       1.40222529       1.51699214       0.00965369      -0.01387164      -0.01113174
B       -0.39546300       1.53093309       3.00299679      -0.00347561      -0.00579668      -0.01793042
B       -1.29877812       0.01736134       3.14046694       0.00157845      -0.00100463      -0.01596141
B       -0.12935671      -1.31345034       3.11625412       0.00807543      -0.00222323      -0.01966294
B        0.26920380       0.20520753       3.97251825       0.00348161      -0.00285496      -0.01395760
B        1.32676452       1.14698770       2.90548971       0.00699523       0.00540783       0.00213969
C        1.44443696       0.22321718       1.49226675       0.00816820      -0.01947194       0.00911659
B       -1.19146718       0.83303049       1.56695664      -0.00846425       0.00268391      -0.03171925
B       -1.05071140      -0.93386806       1.63600000      -0.17982340      -0.13270989      -0.27429634
B        0.68545377      -1.29150393       1.51759479      -0.01756342      -0.01276115      -0.01101785
B        1.48005086      -0.61274245       2.96976960       0.00840825      -0.00119497      -0.01413849
C        1.03309768       0.99868024      -1.52389568      -0.01965691       0.00339973       0.00201622
B        1.54836222       0.34620873      -2.99428731      -0.00771393      -0.00618264       0.01377941
B        0.68189887      -1.19041627      -3.11597555      -0.00304171      -0.00009042       0.01800956
B       -1.05325254      -0.83348616      -3.10690089      -0.00786234       0.00254579       0.02115533
B        0.07448458       0.25362857      -3.97202413      -0.00909121      -0.00109485       0.01255908
B        0.36257957       1.65460503      -2.92509083      -0.00323367       0.00845731      -0.00972131
C       -0.51013555       1.32360386      -1.51193422      -0.02131703      -0.00364394      -0.01643196
B        1.32420127      -0.66929663      -1.54521449       0.00648204       0.00029430       0.03343681
B       -0.27500000      -1.43300000      -1.61500000      -0.05958944       0.01439930       0.29945087
B       -1.44754175      -0.09280253      -1.52047286      -0.00245132      -0.02157062       0.01283215
B       -1.24216453       0.91438757      -2.98645692      -0.00921274       0.00329679       0.01205726
Co       0.00000000       0.00000000       0.00000000       0.33763829       0.19985078       0.00900592
H        0.68388837       2.31911001       1.02153230      -0.00653698      -0.01508747      -0.02132970
H       -0.70792861       2.60826185       3.38357746      -0.00437895      -0.00946454      -0.00124674
H       -2.32296565      -0.02475703       3.73477869       0.00679771      -0.00720643      -0.00810760
H       -0.29459834      -2.33028176       3.70190072       0.01197027       0.00527106      -0.01456940
H        0.37965598       0.28129738       5.15118559       0.00631308      -0.00357907      -0.01366143
H        2.19990020       1.90022655       3.16570531       0.00892555       0.01418534      -0.00237189
H        2.37661590       0.38775677       0.97469708      -0.00245134      -0.01865107      -0.00005306
H       -2.07536062       1.49628377       1.13097020      -0.00313127       0.01267487      -0.03377088
H       -1.91023502      -1.68875755       1.31776534      -0.00058382       0.00949947      -0.02459495
H        1.23320139      -2.24480272       1.07964024      -0.01601821      -0.00750604      -0.01541435
H        2.50619882      -1.07540489       3.33484656       0.00910916       0.00342404      -0.00957164
H        1.68766129       1.70473402      -1.03417252      -0.01585842      -0.01153305       0.01371233
H        2.64297910       0.60142109      -3.36879538      -0.01158937      -0.00744055      -0.00246911
H        1.15976145      -2.10726877      -3.69492353      -0.01179023       0.00255445       0.00783239
H       -1.85166301      -1.48486842      -3.69207873      -0.00323800       0.00864999       0.01740586
H        0.09467786       0.37072227      -5.15233836      -0.01268302       0.00017475       0.01286239
H        0.58805391       2.78190681      -3.20046562       0.00099764       0.01544439      -0.00271829
H       -0.83146406       2.22497422      -1.01320865      -0.01446380      -0.01442605      -0.00530265
H        2.33513043      -1.10223710      -1.09667916       0.01394356       0.01336143       0.03519603
H       -0.50748118      -2.54623892      -1.27615162       0.01188568       0.00493188       0.02822640
H       -2.55036141      -0.08143366      -1.08986904       0.00181185      -0.01582186       0.02058421
H       -2.14862987       1.57155135      -3.36956991      -0.00701544       0.00468081       0.00977185
