45
Properties=species:S:1:pos:R:3:forces:R:3 charge=-1 spin=1 energy=-242.29856872558594 free_energy=-242.29856872558594 stress="-8.028196774034768e-09 -2.5068176867648617e-08 1.602030330616344e-08 -2.5068176867648617e-08 2.5543588577647824e-08 6.267021745998136e-08 1.602030330616344e-08 6.267021745998136e-08 5.847377693157796e-08" pbc="F F F"
C       -1.20220658      -0.86215708       1.59260624      -0.01067588      -0.00068492       0.00651366
B       -0.60172600      -1.43649252       3.05112705      -0.00308161      -0.00288235       0.01053839
B        1.03905497      -0.78741181       3.11396161       0.00388336       0.00107750      -0.00849719
B        0.91539048       0.99227097       3.11477103       0.00170460      -0.00131489      -0.01819983
B       -0.29435865       0.00907725       4.00476628       0.00264963       0.00194950      -0.00077944
B       -1.72223751      -0.09024793       3.03487962      -0.00438490      -0.00791398       0.01901916
C       -1.31255091       0.73938229       1.59097337      -0.01487318      -0.00638554      -0.00317463
B        0.40135167      -1.34660906       1.52715926      -0.03497821      -0.02132392       0.01926645
B        1.39895725       0.13792247       1.63600000      -0.05504096       0.00324982      -0.02281880
B        0.19750251       1.46067135       1.55399874       0.02026972      -0.02119550      -0.03985302
B       -0.79757215       1.40236693       3.04450820       0.00000070      -0.00189589       0.00635733
C        1.14177354       0.96416298      -1.59005028      -0.00686473       0.01185554       0.00044852
B        1.62179334       0.24651685      -3.02935495       0.00096583       0.00345211      -0.00759769
B        0.69802154      -1.25454586      -3.08122869       0.00252727      -0.00180772       0.00882781
B       -1.03163702      -0.82254609      -3.11084728       0.00284791      -0.00558542       0.01780454
B        0.15785422       0.18401450      -4.00233416       0.00176123      -0.00490591       0.00013989
B        0.49879248       1.58753388      -3.05154330       0.00431269       0.00310324      -0.02224047
C       -0.41959934       1.36034144      -1.62030597       0.00368735       0.01917717      -0.01029313
B        1.32708692      -0.69375634      -1.48001924       0.01744869       0.03749350      -0.00183846
B       -0.27500000      -1.43300000      -1.61500000      -0.11644579       0.15382534       0.06530902
B       -1.39684682      -0.00931500      -1.57763366       0.00118497      -0.02270095       0.00225164
B       -1.13841206       0.94056455      -3.07352674      -0.00130218      -0.00368485      -0.01130726
Co       0.00000000       0.00000000       0.00000000       0.16684425      -0.09078845      -0.01633803
H       -1.97105299      -1.44160234       1.07394450      -0.00640651       0.01600006      -0.02164592
H       -0.95534040      -2.50361892       3.44719412       0.00382915      -0.01125894      -0.00121334
H        1.90484398      -1.37501314       3.68945147       0.00528508      -0.00350316      -0.00916397
H        1.69107284       1.68749361       3.69835353      -0.00227293       0.00092544      -0.01405545
H       -0.33718494       0.00874862       5.19427731       0.01110987      -0.00083903       0.00259885
H       -2.86751642      -0.16682275       3.33816564      -0.00647426      -0.00710723       0.00758445
H       -2.16405381       1.20082678       1.08233006      -0.00712976      -0.02471748      -0.01814926
H        0.68401769      -2.42840709       1.10379308      -0.00757620      -0.00991461      -0.00318349
H        2.53076028       0.21614880       1.25876807       0.00725409      -0.00252143      -0.02288131
H        0.33104704       2.55334346       1.08369188      -0.00694733      -0.00673771      -0.00774920
H       -1.30207761       2.40588450       3.44450799      -0.00227505       0.00238231      -0.00136377
H        1.84052254       1.62427421      -1.06890440      -0.02667582       0.01802263       0.02060068
H        2.74013336       0.39438046      -3.41426104       0.01081288      -0.00124691       0.01102741
H        1.13185706      -2.21597162      -3.64123028       0.01099766      -0.00519479       0.01547305
H       -1.84743378      -1.47146216      -3.69299690       0.00591071      -0.00371379       0.01095781
H        0.17790836       0.20947165      -5.19219444       0.00324354      -0.01520378      -0.00247587
H        0.78315400       2.69488722      -3.37157279       0.00504161       0.00547019      -0.00918518
H       -0.72928232       2.29261658      -1.13882451       0.01412100      -0.00115958       0.01626696
H        2.33736665      -1.15140551      -1.03509889       0.00430517       0.01126499       0.01788250
H       -0.56163412      -2.52077960      -1.21156329       0.00178496      -0.00542022       0.02061392
H       -2.50550322       0.04902057      -1.12827905       0.00392312       0.00757038       0.00386392
H       -2.03068411       1.60877911      -3.49671072      -0.00430192      -0.00521074      -0.00934099
