45
Properties=species:S:1:pos:R:3:forces:R:3 charge=-1 spin=1 energy=-242.2898712158203 free_energy=-242.2898712158203 stress="-4.905654549247629e-08 7.886778341514855e-09 -5.165238547988338e-08 7.886778341514855e-09 -9.006592449622985e-08 5.918672485449861e-08 -5.165238547988338e-08 5.918672485449861e-08 -2.1264071392579353e-07" pbc="F F F"
C        1.28032759       0.65089113       1.55400000       0.12012824       0.15257424       0.30371884
B        0.77019779       1.31017292       3.02623960       0.00158102       0.00041416      -0.00252062
B       -0.95393491       0.92806707       3.08058837      -0.00066014       0.00186639       0.00017995
B       -1.10223092      -0.84981937       3.05732084       0.00000706      -0.00169605      -0.00079621
B        0.23035670      -0.07992586       3.97254139       0.00068016       0.00007510       0.00125957
B        1.66927396      -0.19594548       3.02618301       0.00015298      -0.00046022      -0.00269556
C        1.16160668      -0.93889293       1.56400000       0.00513488      -0.09193658       0.08256240
B       -0.22049677       1.41898014       1.54752442       0.00315827      -0.00048158      -0.00215532
B       -1.42455146       0.09361807       1.57891404       0.00171575      -0.00058088      -0.00342762
B       -0.44735184      -1.40552148       1.47921501      -0.00033376       0.00126675      -0.00001423
B        0.53056733      -1.52142719       3.01547828       0.00130071       0.00006890      -0.00213241
C        1.14300000       0.92400000      -1.55300000       0.09040472      -0.02158713      -0.20634554
B        1.61664703       0.19623975      -2.99878301      -0.00026844       0.00244276       0.00160526
B        0.67289301      -1.29489936      -3.04717293       0.00083923       0.00005990      -0.00196920
B       -1.05213614      -0.83702721      -3.07664179      -0.00188433       0.00043976       0.00018468
B        0.14420109       0.14930899      -3.97058982      -0.00035612       0.00143920      -0.00172692
B        0.50372880       1.55011707      -3.02861420      -0.00010389       0.00069315       0.00266401
C       -0.40000000       1.32300000      -1.56800000      -0.15727520       0.31733978      -0.23631231
B        1.34157724      -0.74314780      -1.50657000       0.00043625       0.00253923      -0.00076273
B       -0.30747189      -1.43673765      -1.57163025       0.00008528       0.00160801       0.00206171
B       -1.40381136      -0.02357273      -1.51925482       0.00110573      -0.00148718       0.00072514
B       -1.13078156       0.92466190      -3.04451563      -0.00092883       0.00157461       0.00251230
Co       0.00000000       0.00000000       0.00000000      -0.05279583      -0.36972812       0.06752656
H        2.15326246       1.10441979       1.07487867      -0.00183332      -0.00101265       0.00288755
H        1.29518128       2.29899484       3.43489513      -0.00060813       0.00044309       0.00016817
H       -1.72924804       1.62679824       3.65895146      -0.00179707       0.00190963       0.00076187
H       -1.98885506      -1.43105359       3.60609376      -0.00106622       0.00046318       0.00106231
H        0.24793044      -0.08990140       5.16229585      -0.00036861       0.00113644       0.00232378
H        2.80946657      -0.28984520       3.34302627      -0.00079525       0.00066921       0.00085209
H        1.92967316      -1.52262715       1.05108167      -0.00374125       0.00189701       0.00462034
H       -0.33937799       2.52092018       1.09518497       0.00094167       0.00039707       0.00232892
H       -2.54958356       0.18218661       1.18453664       0.00027288       0.00046876       0.00076714
H       -0.73891391      -2.47754217       1.04264951       0.00075796       0.00115578       0.00105683
H        0.85762904      -2.59978423       3.40355126      -0.00024695       0.00098863       0.00142755
H        1.85154381       1.59554245      -1.05928133      -0.00154351      -0.00166959      -0.00327314
H        2.73283527       0.34331513      -3.38910561      -0.00167084       0.00119183      -0.00172886
H        1.08363556      -2.26939983      -3.59941876      -0.00026610      -0.00033595      -0.00369611
H       -1.87976099      -1.48358901      -3.64393742      -0.00145064      -0.00021121      -0.00105237
H        0.16771466       0.15618562      -5.16021996      -0.00155433       0.00160646      -0.00275069
H        0.79776455       2.65468356      -3.34902759      -0.00114725       0.00016463      -0.00021386
H       -0.70289710       2.25604313      -1.08290706       0.00206181      -0.00479966      -0.00258957
H        2.32725437      -1.22067489      -1.02794720       0.00081363       0.00019438      -0.00575504
H       -0.60477461      -2.52567087      -1.18188935       0.00100391      -0.00006140      -0.00186289
H       -2.51838980       0.06718450      -1.09773217       0.00137805      -0.00129755       0.00033468
H       -2.02026305       1.60278686      -3.45623998      -0.00126399       0.00025748       0.00018939
