45
Properties=species:S:1:pos:R:3:forces:R:3 charge=-1 spin=1 energy=-54314.473877923665 free_energy=-54314.473877923665 stress="0.9534086585044861 -0.28103581070899963 0.3190467059612274 -0.28103581070899963 1.0669913291931152 -1.086158275604248 0.3190467059612274 -1.086158275604248 1.3437901735305786" pbc="F F F"
C        1.41013978       0.27277060       1.55400000      -0.06799099      -0.17409891      -0.07306393
B        1.10691144       1.07017562       3.01398793       0.00210790       0.00195920       0.00164792
B       -0.65753160       1.18847673       3.09198516       0.00402607       0.00316471       0.00346136
B       -1.30674149      -0.46031768       3.06827930       0.00131950       0.00148840       0.00295207
B        0.19466669      -0.10635079       3.97338983       0.00096181       0.00046939       0.00255207
B        1.56014192      -0.63858363       2.96809106      -0.00000187       0.00055498       0.00004811
C        0.85781404      -1.22270400       1.56400000      -0.50934094       0.57742208      -0.41174844
B        0.17651979       1.43339221       1.54794371       0.00411639       0.00016582       0.00306437
B       -1.34912046       0.51446720       1.57596632      -0.00124525       0.00006398       0.00108842
B       -0.85480382      -1.20435984       1.50397140      -0.00307943       0.00237721       0.00224075
B        0.05683216      -1.57914511       2.99802074      -0.00074936       0.00202557       0.00237325
C        1.14300000       0.92400000      -1.55300000      -0.39450204      -0.06930196       0.23916140
B        1.63071260       0.18372612      -2.98608956       0.00182586       0.00108366      -0.00132364
B        0.68591400      -1.30974997      -3.05857696       0.00468522       0.00166467      -0.00331564
B       -1.03022892      -0.86928210      -3.08710753       0.00205264      -0.00016940      -0.00269953
B        0.16045040       0.12794282      -3.97351378       0.00030132       0.00108418      -0.00257688
B        0.51113991       1.55375529      -2.97494878      -0.00008867       0.00021166      -0.00038581
C       -0.40000000       1.32300000      -1.56800000       0.01177678      -0.17804961       0.25593838
B        1.33199042      -0.75073084      -1.50419987       0.00320705       0.00285953      -0.00340148
B       -0.30288259      -1.44973628      -1.56606782      -0.00058574      -0.00177915      -0.00159092
B       -1.41363625      -0.05201677      -1.54393522       0.00201083      -0.00382323      -0.00082758
B       -1.13085054       0.89160322      -3.03090970       0.00084423      -0.00079932      -0.00263579
Co       0.00000000       0.00000000       0.00000000       0.89620864      -0.19658570      -0.01109985
H        2.36132469       0.42237491       1.06725456       0.00274545       0.00206573      -0.00054114
H        1.90380765       1.84836201       3.41547473       0.00566228      -0.00021078      -0.00124881
H       -1.18093511       2.08899885       3.65700125       0.00261458       0.00555501       0.00200663
H       -2.30408565      -0.77463244       3.62550147       0.00006970       0.00375983       0.00216358
H        0.26700918      -0.14643876       5.15627407       0.00320185       0.00214815       0.00264618
H        2.61885848      -1.05141159       3.29356328       0.00035956      -0.00028040      -0.00215014
H        1.43675782      -1.97051737       1.04951065      -0.00214932       0.00570499       0.00277544
H        0.38729218       2.51289885       1.08710759       0.00641182      -0.00142741       0.00311986
H       -2.39983198       0.93170822       1.21146586       0.00266882       0.00310216       0.00787362
H       -1.45214608      -2.12598619       1.06409934      -0.00256422       0.00014911       0.00669729
H        0.08877337      -2.69287808       3.39650195      -0.00022044       0.00141162       0.00063982
H        1.80584156       1.61038338      -1.05037694       0.00146493       0.00111177       0.00024401
H        2.73774914       0.36182411      -3.36650835       0.00146940       0.00459410       0.00069542
H        1.12089646      -2.27310729      -3.59431592       0.00491241      -0.00072455      -0.00233094
H       -1.85462211      -1.49898704      -3.65957260       0.00226372      -0.00176222      -0.00171150
H        0.19542569       0.19841691      -5.15664369       0.00200776       0.00181425      -0.00270226
H        0.78838193       2.65552882      -3.30070909      -0.00056224       0.00104643       0.00214458
H       -0.67628868       2.25085121      -1.09462327       0.00192613      -0.00372138      -0.00173417
H        2.31144503      -1.21641329      -1.00918225       0.00494589       0.00565647      -0.00433377
H       -0.58149494      -2.54082991      -1.18978078       0.00474446       0.00003331      -0.00858884
H       -2.52018790       0.02018807      -1.13082375       0.00062404      -0.00200286      -0.00546763
H       -1.99709882       1.57832814      -3.45263212      -0.00045643      -0.00001106      -0.00005590
