45
Properties=species:S:1:pos:R:3:forces:R:3 charge=-1 spin=1 energy=-242.2804412841797 free_energy=-242.2804412841797 stress="-7.439183491442236e-08 -1.4458560571029011e-08 5.4994316656120645e-08 -1.4458560571029011e-08 -8.442865606639316e-08 9.361608022118162e-08 5.4994316656120645e-08 9.361608022118162e-08 -1.663736099999369e-07" pbc="F F F"
C       -1.17728099      -0.82274386       1.55400000      -0.20634538      -0.18741810       0.18684535
B       -0.58965291      -1.41302516       3.02869187       0.00016907      -0.00071724       0.00002926
B        1.06107779      -0.78493143       3.08866847       0.00139405      -0.00152318      -0.00006710
B        0.95584766       0.99779623       3.07966207       0.00079161       0.00119877      -0.00119963
B       -0.26219991       0.02906498       3.97836875       0.00062424       0.00174253       0.00138432
B       -1.69425042      -0.05700255       3.01945471      -0.00022188       0.00312805      -0.00194137
C       -1.28097064       0.76809128       1.56400000      -0.02251759       0.05366693       0.10133211
B        0.41133480      -1.35569531       1.52138849      -0.00046201      -0.00106975       0.00066334
B        1.42123144       0.12938444       1.60761525       0.00358406       0.00036128      -0.00328274
B        0.24133518       1.47632724       1.53116181      -0.00371537      -0.00449032       0.00093696
B       -0.75576287       1.42594234       3.02069404      -0.00153503      -0.00075726      -0.00406649
C        1.14300000       0.92400000      -1.55300000       0.14638987       0.04030940      -0.08210345
B        1.62396753       0.17954085      -2.98887999       0.00142048       0.00014760       0.00056311
B        0.67274952      -1.30882760      -3.01834028       0.00215803      -0.00121292      -0.00003324
B       -1.05228807      -0.84733173      -3.06852410      -0.00104100      -0.00084165       0.00043238
B        0.16227250       0.12717904      -3.96148836      -0.00072291      -0.00013639      -0.00174385
B        0.52199422       1.53593343      -3.03350974      -0.00196856       0.00103123       0.00211233
C       -0.40000000       1.32300000      -1.56800000      -0.13243726       0.22767463      -0.31741622
B        1.32401205      -0.73702744      -1.44941831       0.00128886      -0.00034553      -0.00055355
B       -0.33158391      -1.43643060      -1.55810901      -0.00080380      -0.00380570       0.00259498
B       -1.42567748      -0.01668266      -1.55568483       0.00463524       0.00304043      -0.00048801
B       -1.12167174       0.91818247      -3.04477427       0.00131700       0.00151761       0.00399253
Co       0.00000000       0.00000000       0.00000000       0.21005559      -0.14078572       0.11263771
H       -1.95933289      -1.39240121       1.04185953       0.00345329       0.00014843       0.00207263
H       -0.95844478      -2.47689561       3.42018083      -0.00103696       0.00066319       0.00137328
H        1.92575145      -1.37719921       3.66070832       0.00071540      -0.00077886       0.00056595
H        1.74209308       1.68724743       3.65460802       0.00279284       0.00050636      -0.00156831
H       -0.28995611       0.03095222       5.16815900       0.00148657       0.00141650       0.00093395
H       -2.83955393      -0.12819275       3.32432004       0.00054628       0.00097967       0.00153530
H       -2.13172270       1.23356799       1.05665142       0.00124053      -0.00045173      -0.00234935
H        0.67210818      -2.44137322       1.09322970       0.00077154       0.00148500      -0.00053111
H        2.54529832       0.18683921       1.20181922      -0.00590504       0.00075244      -0.00729603
H        0.38538576       2.55844736       1.04154731       0.00042366       0.00508177       0.00415005
H       -1.24947633       2.43506453       3.41948315       0.00255006       0.00013196      -0.00024918
H        1.84657728       1.58439320      -1.03703031      -0.00427644      -0.00420178      -0.00105633
H        2.74771129       0.30507369      -3.36596838       0.00023356       0.00129804      -0.00074588
H        1.09086183      -2.29253539      -3.55022995       0.00171493      -0.00038791      -0.00087056
H       -1.86996118      -1.49381363      -3.64960930      -0.00025837      -0.00222158       0.00001528
H        0.18832242       0.12266111      -5.15135689      -0.00015466      -0.00047790      -0.00147833
H        0.82068583       2.63703581      -3.36196679      -0.00043616       0.00006545      -0.00106215
H       -0.69457928       2.26989313      -1.10432253      -0.00289267       0.00096001       0.00113438
H        2.31583218      -1.19916220      -0.96918972      -0.00202264      -0.00061233       0.00092483
H       -0.61787850      -2.51482510      -1.12662401       0.00071162       0.00554174       0.00525176
H       -2.52875550       0.07343099      -1.09876163      -0.00160065       0.00148431      -0.00120442
H       -1.99652525       1.60440105      -3.47480677      -0.00011379      -0.00209758      -0.00017424
