45
Properties=species:S:1:pos:R:3:forces:R:3 charge=-1 spin=1 energy=-242.27853393554688 free_energy=-242.27853393554688 stress="-5.0796160167010385e-08 1.704643537436823e-08 -2.886396233137134e-09 1.704643537436823e-08 -9.934066724781587e-08 1.0904978609005411e-07 -2.886396233137134e-09 1.0904978609005411e-07 -1.216266412029654e-07" pbc="F F F"
C        0.07386249      -1.43437873       1.55400000       0.04693183      -0.21549693       0.21795556
B        0.86897871      -1.24889328       3.04059459      -0.00219414      -0.00153683      -0.00140475
B        1.21793366       0.48611622       3.10035199       0.00040312      -0.00112595      -0.00087208
B       -0.34433906       1.34499168       3.07341704      -0.00009163       0.00131509      -0.00090563
B       -0.18433128      -0.19957866       3.98124100      -0.00007261      -0.00164814       0.00004441
B       -0.86710398      -1.46202346       3.02236624      -0.00095990       0.00086329      -0.00146626
C       -1.33018937      -0.67929835       1.56400000      -0.08179221       0.05672607       0.00137720
B        1.37567374      -0.37367787       1.55104889      -0.00151387       0.00066668       0.00187299
B        0.65332176       1.26647480       1.60819946      -0.00042196      -0.00015748      -0.00119641
B       -1.11474218       0.98836925       1.51624393      -0.00221813      -0.00142282      -0.00125408
B       -1.61941735       0.12051499       3.01571472      -0.00128937      -0.00199731      -0.00387952
C        1.14300000       0.92400000      -1.55300000       0.12545459       0.03930065      -0.08545305
B        1.62001949       0.19816737      -3.00067841      -0.00073531       0.00419429       0.00149394
B        0.67204481      -1.29476504      -3.04176126       0.00121669       0.00129436       0.00043865
B       -1.05128389      -0.83741740      -3.08074538      -0.00097646      -0.00031257       0.00095687
B        0.15548183       0.15129386      -3.97095894       0.00096222       0.00235192      -0.00004914
B        0.51452517       1.55284544      -3.03046499      -0.00031204      -0.00017038       0.00175415
C       -0.40000000       1.32300000      -1.56800000      -0.16989063       0.22049546      -0.23550117
B        1.33208383      -0.73952746      -1.48315139      -0.00133461       0.00132988      -0.00155784
B       -0.31958086      -1.43483182      -1.57832886       0.00018562       0.00032651       0.00108342
B       -1.41866713      -0.02271279      -1.55558563      -0.00046167       0.00226212       0.00098814
B       -1.12445725       0.93023585      -3.04734200      -0.00008357       0.00161900       0.00292733
Co       0.00000000       0.00000000       0.00000000       0.09376732      -0.11406505       0.10095558
H        0.13955404      -2.40089872       1.04608712       0.00152884      -0.00376178       0.00039649
H        1.56623072      -2.12841743       3.44252755      -0.00156553      -0.00002639      -0.00023413
H        2.17154275       0.90594718       3.68289722       0.00046270      -0.00083674       0.00116525
H       -0.51587833       2.38177423       3.63911436       0.00014057       0.00336008      -0.00089984
H       -0.20780460      -0.21628477       5.17136787      -0.00094557       0.00060225       0.00103061
H       -1.41721876      -2.46998366       3.32478073      -0.00011140       0.00216216      -0.00017820
H       -2.17028205      -1.13849431       1.03531191      -0.00507501      -0.00347115      -0.00289889
H        2.44614028      -0.72968018       1.15969159      -0.00210141      -0.00141050      -0.00352845
H        1.20671191       2.24560946       1.19678483       0.00257439       0.00115015      -0.00134337
H       -1.95570698       1.68211905       1.02562052       0.00389926      -0.00148878      -0.00292507
H       -2.74037244       0.24667984       3.40150633      -0.00011876       0.00236712      -0.00117418
H        1.84470080       1.58510817      -1.03633343       0.00210123       0.00245020       0.00475840
H        2.74145948       0.33377136      -3.38141325      -0.00189376       0.00156275      -0.00083925
H        1.08845149      -2.27118062      -3.58746990       0.00038192       0.00070630      -0.00172909
H       -1.87147156      -1.48079732      -3.66181748      -0.00189073      -0.00207762       0.00069585
H        0.17977318       0.15522603      -5.16118378      -0.00141249       0.00128656      -0.00072327
H        0.81248922       2.65773406      -3.34720117      -0.00229979      -0.00125578       0.00064529
H       -0.70488272       2.25399528      -1.07995376      -0.00070194       0.00618788       0.00120066
H        2.33216537      -1.21286391      -1.03628377       0.00015743       0.00307814       0.00262018
H       -0.60075185      -2.51430518      -1.14380975       0.00116741      -0.00186704       0.00010115
H       -2.52360533       0.06646771      -1.10682237       0.00312078      -0.00242248       0.00422522
H       -2.00571073       1.61569885      -3.46516425      -0.00199173      -0.00110660       0.00132653
