45
Properties=species:S:1:pos:R:3:forces:R:3 charge=-1 spin=1 energy=-54314.446770684895 free_energy=-54314.446770684895 stress="0.7230296730995178 0.27486032247543335 -0.381273090839386 0.27486032247543335 0.9984579086303711 -1.0367804765701294 -0.381273090839386 -1.0367804765701294 1.3283880949020386" pbc="F F F"
C        1.11537478      -0.90489618       1.55400000      -0.20398824       0.01533841      -0.06708795
B        1.52838799      -0.16761006       3.01945877      -0.00045348      -0.00041033       0.00146232
B        0.47392676       1.25079591       3.11750886      -0.00435681       0.00024741       0.00097835
B       -1.19985230       0.67400157       3.10303826      -0.00333125      -0.00168100      -0.00403627
B        0.05061676      -0.24563837       3.99041163      -0.00153063      -0.00032095      -0.00028719
B        0.52372814      -1.61926657       2.96517531       0.00001277      -0.00040498       0.00045106
C       -0.38525337      -1.44306266       1.56400000       0.17891851       0.56822628      -0.34747088
B        1.19669438       0.78776550       1.56460126       0.00129166       0.00369921      -0.00030628
B       -0.49428833       1.34442555       1.60885308      -0.00207161      -0.00687269       0.00103723
B       -1.47981430      -0.14541212       1.53689587       0.00361259      -0.00041651      -0.00263827
B       -1.16526146      -1.08846199       3.01693733      -0.00032239      -0.00018242      -0.00232128
C        1.14300000       0.92400000      -1.55300000      -0.34342778      -0.08759295       0.32431704
B        1.63456502       0.18827403      -2.98531766      -0.00019614       0.00158321      -0.00269586
B        0.68548759      -1.30071747      -3.07554846      -0.00476797       0.00015721      -0.00327889
B       -1.02556392      -0.84985664      -3.12039172      -0.00437791       0.00267641       0.00289800
B        0.17663871       0.14599783      -3.98832949      -0.00188303       0.00195741      -0.00008185
B        0.52255121       1.56359894      -2.97356683      -0.00004759       0.00107767       0.00017583
C       -0.40000000       1.32300000      -1.56800000       0.08125740      -0.07786653       0.10978100
B        1.32626477      -0.75285658      -1.51098046       0.00134126      -0.00368239      -0.00138914
B       -0.31410164      -1.43546117      -1.59326965      -0.00295981       0.00816537      -0.00317947
B       -1.41699841      -0.03323907      -1.58201035       0.00387857       0.00101626       0.00169219
B       -1.11831414       0.91239564      -3.05380608      -0.00041853       0.00101208       0.00259944
Co       0.00000000       0.00000000       0.00000000       0.35203910      -0.43235305      -0.00213568
H        1.84637151      -1.52095357       1.06072444       0.00355315      -0.00346887      -0.00202561
H        2.64053690      -0.26953833       3.41081661      -0.00106056       0.00095501       0.00315936
H        0.82798653       2.22885687       3.68552661      -0.00337417      -0.00034381       0.00069243
H       -2.08219536       1.22718090       3.66906107      -0.00166738      -0.00264740      -0.00143985
H        0.07822295      -0.33733291       5.17251226      -0.00250986      -0.00087354      -0.00074448
H        0.89819611      -2.69680943       3.27247835      -0.00043689      -0.00075683       0.00054391
H       -0.58118473      -2.36778050       1.04944542      -0.00064802      -0.00055693      -0.00118053
H        2.15942537       1.33700477       1.13127509      -0.00717388      -0.00143555       0.00212495
H       -0.86728720       2.41759899       1.25102998      -0.00439240       0.00474946      -0.00330007
H       -2.57189374      -0.29368708       1.10940632      -0.00430385      -0.00202198      -0.00394580
H       -1.98790260      -1.84141993       3.41178454       0.00033026      -0.00219154      -0.00106303
H        1.80936893       1.59620545      -1.04172383       0.00252382       0.00252892       0.00129824
H        2.74601171       0.36204298      -3.35249790      -0.00094991       0.00001934      -0.00378951
H        1.12490081      -2.26283101      -3.61016197      -0.00372148       0.00159060      -0.00338307
H       -1.84856177      -1.47574361      -3.69981226      -0.00218665       0.00439997      -0.00047726
H        0.22530686       0.22351451      -5.17071735      -0.00250569       0.00335906       0.00067663
H        0.80956197       2.66616199      -3.28568445      -0.00030278       0.00165004       0.00073359
H       -0.67568922       2.25128046      -1.09604182      -0.00027621      -0.00051507       0.00119797
H        2.31035640      -1.22805272      -1.04069156      -0.00875169       0.00066232      -0.00364179
H       -0.61039435      -2.52832456      -1.22385377      -0.00463381      -0.00451131       0.00143186
H       -2.52788753       0.04732061      -1.18741310      -0.00614858       0.00215552       0.00330361
H       -1.97816908       1.60609337      -3.47660761       0.00041821       0.00387939       0.00134496
