45
Properties=species:S:1:pos:R:3:forces:R:3 charge=-1 spin=1 energy=-242.30136108398438 free_energy=-242.30136108398438 stress="-7.194005036126327e-08 1.9061443978785064e-08 -4.7585562157337336e-08 1.9061443978785064e-08 -8.166601617176639e-08 9.619635932267556e-08 -4.7585562157337336e-08 9.619635932267556e-08 -1.6916588663207222e-07" pbc="F F F"
C        1.34041275      -0.51593765       1.55400000       0.20688277      -0.02338833       0.32251421
B        1.49005584       0.29568105       3.03433726       0.00399718       0.00000595       0.00029706
B        0.05282661       1.32453124       3.08891961       0.00053798       0.00408702       0.00153791
B       -1.36852641       0.24710713       3.06079412      -0.00280607       0.00105900      -0.00003329
B        0.09761283      -0.23474781       3.97596844      -0.00065044      -0.00077967       0.00061757
B        0.97285828      -1.37964475       3.02637369      -0.00085974      -0.00140502      -0.00004847
C        0.07953316      -1.49148398       1.56400000      -0.07968211      -0.06938353      -0.00427145
B        0.90905138       1.11193966       1.55412196       0.00353134       0.00217959      -0.00120312
B       -0.88045762       1.12526376       1.59320427       0.00309068      -0.00162113       0.00103842
B       -1.34479331      -0.60872518       1.49089150      -0.00377312      -0.00046414      -0.00441486
B       -0.77426325      -1.41884008       3.01474012      -0.00006672      -0.00014105      -0.00125911
C        1.14300000       0.92400000      -1.55300000       0.11313992       0.03156626      -0.17905718
B        1.61857503       0.20192556      -3.00303300       0.00328813       0.00213372       0.00085859
B        0.67523599      -1.29206035      -3.05161549       0.00270222      -0.00385904      -0.00156227
B       -1.04797523      -0.83585007      -3.08240625      -0.00273582      -0.00158492       0.00034522
B        0.15026313       0.15707444      -3.97400595      -0.00077987       0.00120997       0.00000140
B        0.50802078       1.55602891      -3.02912363      -0.00142062       0.00135686       0.00082370
C       -0.40000000       1.32300000      -1.56800000      -0.17589460       0.29462615      -0.20544799
B        1.34057618      -0.74179744      -1.50646233       0.00392845       0.00008770       0.00005178
B       -0.30457742      -1.43872781      -1.58412546       0.00325770       0.00584126      -0.00289857
B       -1.40551139      -0.02135883      -1.53744210      -0.00556734      -0.00151393       0.00511222
B       -1.12617284       0.93042622      -3.04849330      -0.00092274       0.00123015       0.00190414
Co       0.00000000       0.00000000       0.00000000      -0.06973956      -0.23022136       0.06703487
H        2.25836484      -0.86009350       1.07078044       0.00037503      -0.00040897      -0.00141793
H        2.57664371       0.56792306       3.44236104      -0.00246966      -0.00182118       0.00007515
H        0.05434668       2.36642404       3.67102668       0.00171714      -0.00103456      -0.00060377
H       -2.39249964       0.51361746       3.61396972       0.00114083       0.00182867      -0.00133403
H        0.10078907      -0.25745866       5.16608921      -0.00132085       0.00001747       0.00041170
H        1.66711838      -2.29081895       3.33885219      -0.00245708       0.00008446       0.00063504
H        0.15489835      -2.44543025       1.03464542      -0.00022176       0.00335270       0.00638108
H        1.66420410       1.93399937       1.12275291       0.00008732      -0.00272872      -0.00018419
H       -1.55281611       2.02108292       1.17056849       0.00182624       0.00425035      -0.00268105
H       -2.33365753      -1.10053825       1.03389405       0.00365314       0.00443776      -0.00161846
H       -1.35471328      -2.38601095       3.40069435      -0.00192383       0.00187512      -0.00134778
H        1.84711423       1.59164985      -1.04885274      -0.00288104      -0.00173810      -0.00171323
H        2.73649905       0.34763148      -3.39003284      -0.00315815       0.00067313      -0.00051102
H        1.08746214      -2.26452935      -3.60674005       0.00104056       0.00110391       0.00056347
H       -1.87501461      -1.47756466      -3.65649135       0.00169837      -0.00164361       0.00237068
H        0.17369720       0.16625408      -5.16400833      -0.00161470      -0.00063164      -0.00083952
H        0.80318269       2.66195112      -3.34485038      -0.00221036      -0.00148657      -0.00055566
H       -0.70663128       2.25259447      -1.07722516       0.00068566      -0.00657401      -0.00068685
H        2.33520094      -1.21244273      -1.03944041       0.00077057       0.00179645      -0.00144061
H       -0.58915736      -2.51321284      -1.14249402       0.00056253      -0.00662576       0.00021143
H       -2.52264202       0.06346633      -1.11889483       0.00679760      -0.00303088       0.00148483
H       -2.01332439       1.61218850      -3.46005518      -0.00155558      -0.00271721       0.00086029
