45
Properties=species:S:1:pos:R:3:forces:R:3 charge=-1 spin=1 energy=-54314.60097600716 free_energy=-54314.60097600716 stress="1.1930264234542847 0.2848588824272156 -1.3335137367248535 0.2848588824272156 0.5355533361434937 -0.3678012788295746 -1.3335137367248535 -0.3678012788295746 2.1554458141326904" pbc="F F F"
C       -1.17150851      -0.83094272       1.55400000       0.11949988       0.15378879      -0.30430564
B       -0.55905836      -1.41672306       3.00726271       0.01010924       0.00271106      -0.00798925
B        1.08406920      -0.76593837       3.10176926      -0.00213854      -0.01391504      -0.00839578
B        0.96374389       1.00096063       3.09938021       0.00796052      -0.00439867       0.00145924
B       -0.24862266       0.02941000       3.98378771      -0.00247603       0.01009463      -0.00535991
B       -1.70154354      -0.06676086       2.96312504       0.00924196       0.00306952      -0.00356097
C       -1.28630167       0.75912977       1.56400000       0.25353304      -0.27677825      -0.31265056
B        0.45390686      -1.35082794       1.53498958       0.00310029       0.00388432       0.00397970
B        1.42524882       0.14059150       1.59533235      -0.04473262      -0.00763609       0.00834003
B        0.24471978       1.47184829       1.54057936       0.01450986       0.00444984       0.00427143
B       -0.74666837       1.42855707       3.01672028       0.00499702       0.00394414      -0.00828342
C        1.14300000       0.92400000      -1.55300000      -0.43734586      -0.29181653       0.41972962
B        1.60349286       0.15587112      -2.96977856      -0.00357917      -0.01202945       0.01223182
B        0.63063952      -1.31991960      -3.03543249       0.02001751      -0.00427921       0.01703869
B       -1.07570114      -0.84890685      -3.08465196       0.00915303      -0.01240665      -0.00300332
B        0.13747724       0.12154863      -3.96725552      -0.00396636       0.00018474       0.00475245
B        0.51018553       1.54853700      -2.97527243      -0.00195857      -0.00909561       0.00324448
C       -0.40000000       1.32300000      -1.56800000       0.07046479       0.16419332       0.02455666
B        1.29693290      -0.77286078      -1.46422975      -0.00393228      -0.00534975      -0.00166518
B       -0.35693386      -1.43378959      -1.54659915       0.01730075       0.04328201      -0.00142877
B       -1.43119007      -0.01582891      -1.55815864       0.00266861      -0.01674262      -0.01050307
B       -1.14377416       0.91527799      -3.03786945      -0.00193842      -0.00302584       0.00236267
Co       0.00000000       0.00000000       0.00000000      -0.07496978       0.28727186       0.15681061
H       -1.95540303      -1.37011371       1.04727394       0.00671973      -0.00210080      -0.00285483
H       -0.94109209      -2.46509547       3.40256923       0.01325957       0.01541463      -0.00619335
H        1.93470053      -1.36349536       3.67057662       0.00194813       0.01180175      -0.00530247
H        1.73410206       1.70224617       3.66520666      -0.00271917       0.00973972      -0.00571453
H       -0.34187662       0.02055223       5.16635077       0.00595171       0.00669176      -0.00795396
H       -2.83918369      -0.14383425       3.27590453       0.00789437       0.00149690      -0.00509392
H       -2.13436100       1.18798673       1.05316713       0.01191787      -0.00824640       0.00849250
H        0.74289900      -2.42220271       1.12013212      -0.00503584       0.00016334      -0.01109568
H        2.55513432       0.22838334       1.23887606       0.01680250       0.00056580      -0.02670844
H        0.38716516       2.55331414       1.06020790      -0.00203915      -0.01933693       0.01002328
H       -1.26388560       2.41661916       3.41440698      -0.00534828       0.01001380      -0.00496602
H        1.81229029       1.59194168      -1.03649156      -0.00251581      -0.00855484       0.00216982
H        2.71318815       0.30114373      -3.35600448      -0.01854651      -0.01029288       0.01357605
H        1.05400295      -2.28956480      -3.56892294      -0.00696816      -0.00003100       0.00919326
H       -1.90637745      -1.47451488      -3.65379899      -0.00477138       0.00306289       0.00234459
H        0.18248490       0.18262935      -5.15106959      -0.00080157      -0.00661608       0.00805231
H        0.80280872       2.64480787      -3.30778158       0.00032031      -0.00640741       0.00353597
H       -0.66109561       2.26065869      -1.10125690       0.00615541      -0.01179759      -0.01127427
H        2.27239233      -1.26866308      -1.01081348       0.00572062       0.00455635       0.01987821
H       -0.67170585      -2.51400376      -1.16569464      -0.00407322      -0.01419184       0.02876019
H       -2.52851205       0.08504856      -1.10448532       0.01821526      -0.00328507      -0.00889077
H       -1.99552708       1.62066257      -3.46070203      -0.00760548       0.00795333      -0.00160955
