45
Properties=species:S:1:pos:R:3:forces:R:3 charge=-1 spin=1 energy=-54314.43605329293 free_energy=-54314.43605329293 stress="1.5804121494293213 -0.06317054480314255 0.573395311832428 -0.06317054480314255 0.6297109723091125 -0.5505369901657104 0.573395311832428 -0.5505369901657104 1.8214582204818726" pbc="F F F"
C        0.78335065       1.20385205       1.55400000      -0.03020008      -0.14922175      -0.01886289
B        0.00496277       1.53547543       3.01530022      -0.00328270       0.00002506       0.00126325
B       -1.29419120       0.33722488       3.09790135      -0.00984849      -0.00426218      -0.00953515
B       -0.54506346      -1.26630854       3.07489778      -0.00940758      -0.00253791       0.00867956
B        0.23497749       0.06776287       3.97939683      -0.00689664      -0.00243779      -0.01503397
B        1.55621074       0.68684967       2.96782909      -0.00979380      -0.00145406      -0.01207070
C        1.47542736      -0.23230179       1.56400000      -0.51967174       0.28058887      -0.35554194
B       -0.91538061       1.11365014       1.55084210      -0.01143970      -0.00935850       0.02143631
B       -1.28980426      -0.63077031       1.57305809       0.01143216      -0.00987283       0.00043942
B        0.29701463      -1.45442574       1.50581162       0.03917552       0.02983302      -0.00462531
B        1.20171510      -1.04990404       3.00467845      -0.00869947      -0.00317552      -0.00027447
C        1.14300000       0.92400000      -1.55300000      -0.40696511      -0.22972171       0.12253342
B        1.62022044       0.18060697      -2.98551506       0.00025454      -0.00332633      -0.00077593
B        0.66300613      -1.30509500      -3.05312718      -0.00367831      -0.00947169       0.00427732
B       -1.04645680      -0.85050338      -3.08111915      -0.00699133      -0.00195735      -0.00940778
B        0.15097033       0.13688417      -3.97376021      -0.00244400      -0.00831107       0.01637663
B        0.51282733       1.56005336      -2.97694712      -0.00364419      -0.00964355       0.01246303
C       -0.40000000       1.32300000      -1.56800000       0.18573049       0.05889984       0.21163630
B        1.32432194      -0.76292681      -1.50094889      -0.01529584      -0.01570887      -0.02434324
B       -0.32583529      -1.44167027      -1.54856599      -0.01987690       0.01444695      -0.01497547
B       -1.42125386      -0.03255295      -1.53575242       0.02013092       0.03701196       0.01644429
B       -1.13347020       0.90845735      -3.03225363      -0.00434660      -0.00859349       0.00599871
Co       0.00000000       0.00000000       0.00000000       0.91151994       0.11214744       0.04489359
H        1.32754565       2.00903518       1.08366388       0.00695817      -0.01986472       0.00047005
H       -0.00611221       2.65027372       3.41487442      -0.00555053       0.00179440      -0.00629202
H       -2.30283747       0.57846194       3.67134937      -0.00484394      -0.00783468      -0.01421680
H       -1.00482762      -2.20093412       3.63831547      -0.01139112      -0.01814132      -0.00602798
H        0.31978881       0.09709606       5.16276179      -0.01340396      -0.00619066      -0.02321395
H        2.59093320       1.16980133       3.27929296      -0.01770627      -0.00695184      -0.00606435
H        2.41940962      -0.33562768       1.05510561      -0.00658573       0.01073625       0.00294141
H       -1.55973292       2.01162548       1.10687777       0.02278643      -0.01977993       0.00005030
H       -2.31723652      -1.11559625       1.23256626      -0.00033963      -0.00385974      -0.01609749
H        0.56678630      -2.52101337       1.06843276       0.00146684       0.01778471       0.00264222
H        2.03456105      -1.79339439       3.39878386      -0.00596567       0.00624710      -0.01106638
H        1.82469443       1.60571968      -1.06865310      -0.02037610       0.00355810      -0.00170443
H        2.72810292       0.35081517      -3.36797536       0.00281772      -0.00536397       0.00287920
H        1.09088501      -2.26867522      -3.59410870      -0.00912750      -0.00767445       0.00928375
H       -1.87209521      -1.47498842      -3.65622287      -0.01586307      -0.01090999       0.00799902
H        0.18780520       0.20673381      -5.15793875      -0.00742225      -0.01095602       0.02525911
H        0.79668002       2.66354096      -3.29711185      -0.00467374      -0.01803668       0.00871304
H       -0.67862185       2.25456642      -1.10122385       0.01214233      -0.00432184       0.00435244
H        2.30457208      -1.24526366      -1.02732889      -0.03173231       0.02270149      -0.00947177
H       -0.62460955      -2.53256293      -1.19231141      -0.00397310       0.01047285       0.01177393
H       -2.52721256       0.06136090      -1.12291556       0.01136155       0.00618351       0.00220881
H       -1.99605982       1.60236893      -3.45177758       0.00566082      -0.00349088       0.01458672
