45
Properties=species:S:1:pos:R:3:forces:R:3 charge=-1 spin=1 energy=-54314.44900037545 free_energy=-54314.44900037545 stress="0.8276452422142029 0.25551778078079224 -0.30302485823631287 0.25551778078079224 0.9150846004486084 -1.1293621063232422 -0.30302485823631287 -1.1293621063232422 1.4394803047180176" pbc="F F F"
C        1.20385205      -0.78335065       1.55400000      -0.24181621       0.07684656       0.01112412
B        1.52892045      -0.00415391       3.02236115      -0.00246963       0.00115495      -0.00048617
B        0.32509501       1.29164497       3.11722372      -0.00284858       0.00077413      -0.00172247
B       -1.27677301       0.53750272       3.09594384      -0.00300084       0.00089735      -0.00081068
B        0.06444711      -0.24126735       3.98860930      -0.00360484       0.00045326      -0.00165894
B        0.68782081      -1.55515938       2.96582034      -0.00225874       0.00066893      -0.00010835
C       -0.23230179      -1.47542736       1.56400000       0.16982673       0.50332099      -0.43261594
B        1.09912054       0.91107947       1.56795257       0.00148704       0.00050644      -0.00350374
B       -0.64315757       1.28187036       1.60462778       0.00106848      -0.00434988       0.00075055
B       -1.46043802      -0.30639001       1.52673375       0.00238640      -0.00037231       0.00844641
B       -1.04984441      -1.20948553       3.01156054      -0.00227306      -0.00113002      -0.00045083
C        1.14300000       0.92400000      -1.55300000      -0.37438515      -0.18025444       0.23269904
B        1.62584729       0.18844038      -2.99121250      -0.00228460      -0.00126551       0.00050767
B        0.66741317      -1.29601182      -3.08320498      -0.00300479      -0.00038316       0.00134569
B       -1.04185714      -0.83804009      -3.11971986      -0.00304590      -0.00067487       0.00010534
B        0.16382560       0.15505086      -3.98978745      -0.00405057       0.00010195       0.00127833
B        0.52071225       1.56765947      -2.97258386      -0.00212925      -0.00020649       0.00040163
C       -0.40000000       1.32300000      -1.56800000       0.11015360       0.03925914       0.21508227
B        1.31622954      -0.75684811      -1.52052710       0.00073988      -0.00004902       0.00474002
B       -0.32816339      -1.43172888      -1.59654183       0.00021628       0.00472738      -0.00065909
B       -1.42363420      -0.02481743      -1.57516586       0.00320983       0.00080295      -0.00914887
B       -1.12444511       0.92293803      -3.04910914      -0.00239596       0.00195850       0.00017296
Co       0.00000000       0.00000000       0.00000000       0.38320047      -0.44651777      -0.02260720
H        1.99794111      -1.31917822       1.06484260       0.00016443       0.00100983      -0.00053575
H        2.64372844       0.01558409       3.41945267      -0.00246488       0.00212316      -0.00055471
H        0.56970095       2.30188058       3.68667032      -0.00347450       0.00004593      -0.00073074
H       -2.21497669       0.99166869       3.66012347      -0.00234380      -0.00172877      -0.00189759
H        0.09768923      -0.32982916       5.17086504      -0.00255577       0.00059719      -0.00235449
H        1.17297686      -2.58739571       3.27453304      -0.00073203       0.00255816      -0.00021476
H       -0.32822370      -2.41535905       1.04819361       0.00126871      -0.00194568      -0.00051304
H        1.99695128       1.56440216       1.14014027      -0.00107031       0.00357255       0.00056849
H       -1.12909629       2.30780766       1.24405165      -0.00246707       0.00086904      -0.00245257
H       -2.52730402      -0.57644188       1.09395014       0.00264049      -0.00250417      -0.00351739
H       -1.78649224      -2.04851716       3.40276235      -0.00041174      -0.00038149      -0.00182653
H        1.81212202       1.59494328      -1.04400676       0.00073392      -0.00100563       0.00136610
H        2.73645690       0.35720573      -3.36394194      -0.00253303      -0.00217997       0.00086663
H        1.10117162      -2.25804601      -3.62262287      -0.00383623      -0.00012076      -0.00035753
H       -1.86869443      -1.45823309      -3.69964876      -0.00323564       0.00240609       0.00073246
H        0.20883765       0.23617270      -5.17212547      -0.00252635       0.00045490       0.00174508
H        0.80816467       2.67106432      -3.28189381       0.00001590      -0.00162835       0.00099876
H       -0.67317011       2.25043929      -1.09241776       0.00117225       0.00190435       0.00055536
H        2.29887181      -1.24193036      -1.05812593       0.00023976      -0.00472653      -0.00132713
H       -0.62918735      -2.52350228      -1.22805266      -0.00296162      -0.00078369       0.00112995
H       -2.53253483       0.06497968      -1.17543165       0.00228172       0.00348160       0.00329968
H       -1.98146552       1.62398109      -3.46555526      -0.00062453       0.00171277       0.00213768
