45
Properties=species:S:1:pos:R:3:forces:R:3 charge=-1 spin=1 energy=-242.2898406982422 free_energy=-242.2898406982422 stress="-7.657431666530101e-08 -7.837476445615721e-09 6.30133740742167e-08 -7.837476445615721e-09 -6.547533359935187e-08 8.120163386138302e-08 6.30133740742167e-08 8.120163386138302e-08 -1.715414015279748e-07" pbc="F F F"
C       -1.34135047      -0.51349481       1.55400000      -0.24316317      -0.13637301       0.18524863
B       -0.91282104      -1.22985968       3.02707632       0.00422326      -0.00096556       0.00538709
B        0.83979809      -1.01873138       3.08943336      -0.00123112       0.00059700       0.00078551
B        1.16738091       0.73684530       3.08379914      -0.00135005       0.00069141       0.00067204
B       -0.24750403       0.08856445       3.97998854      -0.00304094       0.00315056      -0.00250961
B       -1.65756236       0.35259524       3.01884172       0.00236549       0.00499902       0.00470819
C       -1.05710224       1.05517053       1.56400000       0.01398760       0.05465577       0.13107176
B        0.07530547      -1.41178174       1.51728085       0.00241336       0.00098929      -0.00143608
B        1.41060331      -0.21424504       1.60715966      -0.00297579      -0.00217823      -0.00337572
B        0.59012963       1.37570569       1.53542553      -0.00202264      -0.00011465      -0.00043543
B       -0.38972501       1.56501313       3.02260358      -0.00134353      -0.00092622      -0.00146744
C        1.14300000       0.92400000      -1.55300000       0.13794646       0.02787068      -0.09351511
B        1.62263884       0.17760805      -2.98833886       0.00036406      -0.00524998      -0.00486324
B        0.67029982      -1.30978760      -3.01869776       0.00078540       0.00138539      -0.00061755
B       -1.05402043      -0.84692435      -3.07003479       0.00147873       0.00123509      -0.00191858
B        0.16150617       0.12508410      -3.96237488      -0.00041986       0.00301678       0.00171128
B        0.52197882       1.53434540      -3.03330116      -0.00615791       0.00105627      -0.00468636
C       -0.40000000       1.32300000      -1.56800000      -0.14525692       0.20899513      -0.32558540
B        1.31972736      -0.73928531      -1.44652669      -0.00241664      -0.00250791       0.00106186
B       -0.33564340      -1.43498801      -1.55555202       0.00280712       0.00194523       0.00278202
B       -1.42659081      -0.01488203      -1.55700775       0.00102028       0.00155754       0.00006782
B       -1.12180306       0.91836390      -3.04489084       0.00204753       0.00127395       0.00114816
Co       0.00000000       0.00000000       0.00000000       0.23627210      -0.17724915       0.11062406
H       -2.23913834      -0.87647158       1.04410790       0.00248191       0.00215346       0.00029714
H       -1.52626795      -2.17432573       3.41752625      -0.00214335       0.00005168       0.00026882
H        1.53703245      -1.80324310       3.65863101      -0.00145476       0.00050499       0.00107286
H        2.09766728       1.21411999       3.65899905      -0.00033651       0.00129464      -0.00036647
H       -0.27444655       0.09552741       5.16992630      -0.00060508       0.00114279      -0.00423935
H       -2.78598766       0.55937296       3.32476795       0.00072756       0.00054770      -0.00211537
H       -1.76918996       1.71451937       1.05824327      -0.00052831       0.00170143      -0.00330220
H        0.07299510      -2.52966230       1.09383979      -0.00403597      -0.00078112       0.00018713
H        2.52302521      -0.42798442       1.22537107      -0.00271681      -0.00293291      -0.00608157
H        0.99435251       2.39555821       1.05792594      -0.00090186      -0.00366414      -0.00911450
H       -0.62649550       2.66234489       3.42354288       0.00114161      -0.00151825      -0.00249979
H        1.84627225       1.58607652      -1.03991917      -0.00153796       0.00069922       0.00231265
H        2.74622635       0.30063503      -3.36617495       0.00280654       0.00228569       0.00052220
H        1.08705176      -2.29521801      -3.54847321       0.00175533       0.00208531      -0.00068006
H       -1.87210278      -1.49441055      -3.64941693       0.00066137       0.00091537      -0.00146987
H        0.18733227       0.11996820      -5.15239119       0.00111006       0.00157555       0.00322212
H        0.82125510       2.63466933      -3.36361256       0.00028697       0.00102302       0.00217745
H       -0.69569222       2.27026869      -1.10563801      -0.00191583       0.00159716       0.00276422
H        2.31178695      -1.20912227      -0.97562742       0.00143070       0.00359947       0.00309128
H       -0.62647930      -2.51800639      -1.14177513       0.00344971       0.00082503       0.00309374
H       -2.53508309       0.07469224      -1.11364634       0.00222293       0.00021041       0.00487447
H       -1.99561753       1.60535752      -3.47562709       0.00176911      -0.00117084       0.00112681
