45
Properties=species:S:1:pos:R:3:forces:R:3 charge=-1 spin=1 energy=-242.24517822265625 free_energy=-242.24517822265625 stress="-4.1850391596653935e-08 1.1706097424735162e-08 -3.9041538002493326e-08 1.1706097424735162e-08 -1.0398412797485435e-07 3.333377662784187e-08 -3.9041538002493326e-08 3.333377662784187e-08 -2.0720382565286855e-07" pbc="F F F"
C        0.69746598       1.25556331       1.55400000       0.08362696       0.23208177       0.28360257
B       -0.09865032       1.51604356       3.02441269      -0.00049546      -0.00209073      -0.00034701
B       -1.31870863       0.24228176       3.06910699       0.00079957       0.00145666      -0.00125799
B       -0.45492101      -1.31984351       3.04464485      -0.00045626       0.00013927      -0.00088376
B        0.22104572       0.05875038       3.96594583      -0.00209878      -0.00004326      -0.00055493
B        1.48519044       0.76496442       3.02619805      -0.00155757      -0.00108020      -0.00096350
C        1.48803784      -0.12881530       1.56400000      -0.00901514      -0.12873702       0.12204431
B       -0.97280239       1.06781870       1.53896079      -0.00245234       0.00327605      -0.00212842
B       -1.23615487      -0.70897389       1.55864383       0.00185925       0.00042263       0.00273916
B        0.40752729      -1.42157327       1.48499724      -0.00144018       0.00404471      -0.00270228
B        1.27707501      -0.97102000       3.00718305      -0.00107326      -0.00015509      -0.00057412
C        1.14300000       0.92400000      -1.55300000       0.11042330       0.04444671      -0.21289581
B        1.61316414       0.19255588      -2.99899242      -0.00179752      -0.00162122       0.00159308
B        0.67684272      -1.30111680      -3.03643754       0.00135700       0.00038002       0.00280344
B       -1.05054741      -0.85333194      -3.06123824       0.00058395      -0.00118780       0.00161672
B        0.13738915       0.13563185      -3.96358381       0.00088644      -0.00334924       0.00076714
B        0.49542498       1.54152610      -3.02817312       0.00039039      -0.00268732       0.00063122
C       -0.40000000       1.32300000      -1.56800000      -0.21611363       0.23025417      -0.24810863
B        1.35546505      -0.73715606      -1.50032225       0.00196156      -0.00000725       0.00203888
B       -0.29979745      -1.43585342      -1.54783547       0.00125273       0.00287491      -0.00322729
B       -1.40741763      -0.03409728      -1.51966899       0.00276488       0.00004853       0.00402941
B       -1.13770962       0.91031606      -3.03364938       0.00055109      -0.00210872      -0.00072172
Co       0.00000000       0.00000000       0.00000000       0.02638925      -0.35856283       0.05140075
H        1.17415342       2.12198389       1.08404492      -0.00026438       0.00012808       0.00097243
H       -0.21302497       2.62825881       3.43705307       0.00058690       0.00117058       0.00085121
H       -2.35615431       0.38846524       3.64080485      -0.00023621       0.00084233      -0.00017565
H       -0.87378564      -2.29463597       3.59208551      -0.00241196      -0.00038508       0.00007442
H        0.23769861       0.05604761       5.15561526      -0.00064884      -0.00064107      -0.00012785
H        2.48198352       1.32198669       3.35072491       0.00184110       0.00007398       0.00114310
H        2.45495052      -0.19073550       1.05777126       0.00233456      -0.00094861      -0.00243463
H       -1.67110829       1.92228350       1.07623821       0.00329725      -0.00232850      -0.00338936
H       -2.23286119      -1.24244039       1.16698828      -0.00179168      -0.00030225       0.00088203
H        0.75577639      -2.46479849       1.01880057       0.00152953      -0.00208052       0.00040790
H        2.14842860      -1.68102618       3.40312509       0.00054558      -0.00214258       0.00082663
H        1.85320072       1.60321035      -1.07115686       0.00040112      -0.00027720      -0.00053538
H        2.72573276       0.34466553      -3.39790889       0.00029227      -0.00043292       0.00038946
H        1.08683363      -2.27760570      -3.58648816       0.00099055      -0.00110202       0.00249802
H       -1.87558648      -1.50638313      -3.62528498       0.00126548      -0.00321847       0.00061641
H        0.15328565       0.14130116      -5.15326874       0.00071751      -0.00257966       0.00090247
H        0.78530239       2.64496926      -3.35644766      -0.00017042       0.00075009      -0.00109532
H       -0.71097268       2.25846582      -1.09170189       0.00025575      -0.00281820      -0.00139344
H        2.33768710      -1.19875424      -1.00056483      -0.00139809       0.00167867       0.00116158
H       -0.56541091      -2.52759680      -1.13960957      -0.00103629      -0.00359978       0.00108162
H       -2.51841645       0.04895657      -1.08517282      -0.00089134       0.00088055      -0.00004262
H       -2.02799611       1.58535382      -3.44847619      -0.00155517      -0.00046223      -0.00151454
