45
Properties=species:S:1:pos:R:3:forces:R:3 charge=-1 spin=1 energy=-242.3316192626953 free_energy=-242.3316192626953 stress="3.026102746161996e-08 -3.500491563279695e-10 -7.821671310637157e-09 -3.500491563279695e-10 6.474989788785024e-08 5.465569685725313e-08 -7.821671310637157e-09 5.465569685725313e-08 9.470765860442043e-08" pbc="F F F"
C       -0.55470037      -1.37413805       1.59123927      -0.01308340      -0.01294173      -0.02325708
B        0.26103479      -1.53655506       3.05306237      -0.00251979      -0.01045170      -0.00321677
B        1.30045929      -0.10717883       3.11144244       0.00270361      -0.00255313      -0.00185458
B        0.24208340       1.32828531       3.11118534       0.00078048      -0.00235182      -0.00544301
B       -0.25349784      -0.14927088       4.00481274      -0.00099334       0.00172179       0.00178842
B       -1.40548641      -1.00116683       3.03876788      -0.00790191      -0.00040480      -0.00681110
C       -1.50556388      -0.08053150       1.59001668       0.01082808      -0.01736346      -0.01396495
B        1.05923817      -0.93039196       1.53749195       0.03145804      -0.00962782       0.02839653
B        1.10727612       0.86605057       1.63600000      -0.02653515      -0.02585000      -0.06082654
B       -0.60948236       1.33707289       1.54365345      -0.00250062      -0.01581925      -0.01091112
B       -1.42500467       0.75516989       3.04633648      -0.00510180      -0.01658151      -0.01192466
C        1.14011246       0.96716604      -1.58650975      -0.00287228       0.01669100       0.01104674
B        1.62205809       0.24798973      -3.03023436       0.00754087       0.01044063       0.01409004
B        0.69879524      -1.25547863      -3.07815489       0.00863568      -0.00054939       0.00882790
B       -1.03080453      -0.82441754      -3.10745172       0.00554985      -0.00432095      -0.00089496
B        0.15837230       0.18316155      -4.00247917       0.00330561      -0.00208238      -0.00150898
B        0.49988532       1.58796470      -3.05610364      -0.00347265       0.00744666       0.00638856
C       -0.41973612       1.36277945      -1.62172846       0.00761232      -0.01204398       0.01304975
B        1.33219208      -0.68791079      -1.48581683       0.02148655      -0.02450985      -0.02396758
B       -0.27500000      -1.43300000      -1.61500000      -0.11253872       0.13910314       0.07491362
B       -1.39612759      -0.01363444      -1.57586511       0.01855773       0.01287758       0.00685267
B       -1.13777245       0.94053450      -3.07682352       0.01148082       0.00921039       0.00210565
Co       0.00000000       0.00000000       0.00000000       0.07637770      -0.05472978       0.00016155
H       -0.89268735      -2.27292422       1.06801394      -0.00421030       0.02282731      -0.01033640
H        0.53674349      -2.62745857       3.44711359       0.00221956      -0.00049776       0.00471179
H        2.34630809      -0.14035268       3.68666076       0.00298597       0.00173688      -0.01007905
H        0.52304703       2.33114261       3.69445491      -0.00194805       0.00644514      -0.01454121
H       -0.28688304      -0.17179026       5.19480005       0.01021776       0.00751348      -0.00061536
H       -2.33222182      -1.67960267       3.34086233       0.00434723      -0.00310580       0.01135562
H       -2.46781110      -0.15032179       1.07560222       0.03003274       0.00918911      -0.01699252
H        1.88019743      -1.68401454       1.10409911      -0.02209852      -0.00385142       0.04118862
H        2.02010002       1.54046925       1.25166122      -0.01849292      -0.02717130      -0.02271677
H       -1.09084811       2.33095413       1.08386873       0.00117460      -0.00527440      -0.00857032
H       -2.38899481       1.33391468       3.44392906       0.00493529      -0.00191815      -0.00812162
H        1.83649749       1.62778438      -1.06282823      -0.03533164       0.00732081       0.01222271
H        2.74223751       0.39442256      -3.41155234      -0.00030485       0.00246181       0.00762250
H        1.13452061      -2.21680554      -3.63679606       0.00771275      -0.00071453       0.01815321
H       -1.84613550      -1.47269765      -3.69004261      -0.00030480      -0.00928883       0.00825277
H        0.17861369       0.20552978      -5.19271800       0.00190822      -0.01662188      -0.00024845
H        0.78431866       2.69610398      -3.37461646       0.00217175      -0.00314835      -0.01246528
H       -0.72693015       2.29112750      -1.13249951      -0.01385549      -0.02651808       0.02064877
H        2.33623811      -1.15101594      -1.03145255      -0.00995544       0.03177737      -0.02723639
H       -0.56388287      -2.52050753      -1.20554759       0.01177481       0.02702956       0.02444713
H       -2.50514542       0.05260141      -1.13143424      -0.00214549       0.00434634      -0.01452224
H       -2.03173925       1.60730002      -3.49901518       0.00036928      -0.00784658      -0.00519747
