45
Properties=species:S:1:pos:R:3:forces:R:3 charge=-1 spin=1 energy=-54314.40058805245 free_energy=-54314.40058805245 stress="1.4204188585281372 0.1583719551563263 0.5145718455314636 0.1583719551563263 0.40385687351226807 -0.5116297006607056 0.5145718455314636 -0.5116297006607056 1.0921140909194946" pbc="F F F"
C        0.90489618       1.11537478       1.55400000      -0.14935417      -0.20122436       0.03888899
B        0.15349912       1.52019018       3.01428258      -0.00229877      -0.00106972      -0.00287953
B       -1.26021455       0.45554755       3.09086697      -0.00043299      -0.00143628      -0.00370644
B       -0.67442219      -1.21500586       3.06973623      -0.00080823      -0.00135873      -0.00626175
B        0.22994259       0.03561157       3.97616907      -0.00125631      -0.00142371      -0.00066666
B        1.61015151       0.52052232       2.96953016      -0.00147589       0.00066508       0.00063301
C        1.44306266      -0.38525337       1.56400000      -0.43358642       0.37335399      -0.34595519
B       -0.79865935       1.19271062       1.55035252       0.00261878       0.00117631       0.00125424
B       -1.34544214      -0.50787826       1.56774566      -0.00164440      -0.00488778      -0.00316842
B        0.15460157      -1.48046952       1.50229175       0.00095403      -0.00352094      -0.00171893
B        1.08477489      -1.17134500       3.00508038      -0.00136823      -0.00147654      -0.00216795
C        1.14300000       0.92400000      -1.55300000      -0.48438680      -0.35437256       0.01549527
B        1.61003358       0.17848244      -2.99212201      -0.00099211      -0.00303178       0.00361409
B        0.63840121      -1.30016284      -3.06505422      -0.00152362      -0.00137124       0.00568618
B       -1.06817182      -0.83315258      -3.08873134      -0.00145754      -0.00124535       0.00728558
B        0.13746556       0.14785584      -3.97725838      -0.00156365      -0.00212698       0.00098528
B        0.51233854       1.56319254      -2.97467843       0.00058168      -0.00155619      -0.00085899
C       -0.40000000       1.32300000      -1.56800000       0.22638284       0.22040226       0.28553346
B        1.30685920      -0.76795615      -1.51450165       0.00097852       0.00235909      -0.00044163
B       -0.34901857      -1.43294724      -1.56128858      -0.00417112      -0.00285258       0.00456911
B       -1.42852069      -0.01611129      -1.53666818      -0.00349662       0.00123392       0.00168348
B       -1.13909059       0.92431206      -3.03142755      -0.00169639      -0.00185449       0.00220205
Co       0.00000000       0.00000000       0.00000000       0.89584571       0.02608480      -0.00502380
H        1.53280852       1.85860969       1.08807907      -0.00585307      -0.00093620       0.00479859
H        0.25065965       2.63082085       3.41379389      -0.00344508      -0.00227130       0.00088236
H       -2.24385033       0.79601160       3.65705146      -0.00237186      -0.00278939      -0.00356717
H       -1.22851322      -2.10188155       3.62668205      -0.00015207      -0.00122756      -0.00484417
H        0.31165363       0.05530976       5.15896235      -0.00384644      -0.00271600       0.00134811
H        2.68644299       0.89529757       3.28546254       0.00016304      -0.00040367       0.00331952
H        2.37529685      -0.58027195       1.06135198      -0.00823202       0.00110506       0.00556359
H       -1.34884746       2.15057206       1.10816690      -0.00274795       0.00225398      -0.00246294
H       -2.41404366      -0.88922267       1.22276830       0.00059875      -0.00139975      -0.00259383
H        0.32064382      -2.56722708       1.06571349       0.00056710      -0.00061340      -0.00098092
H        1.84005966      -1.99309014       3.39812910      -0.00016007      -0.00243470       0.00006551
H        1.82461011       1.60533450      -1.07009383      -0.00044085      -0.00544380      -0.00487513
H        2.71878495       0.33948465      -3.37631214      -0.00268093      -0.00466086      -0.00043179
H        1.05774629      -2.26667351      -3.60740426      -0.00312790      -0.00325370       0.00522984
H       -1.90178222      -1.45071886      -3.66076666      -0.00140213      -0.00092459       0.00560740
H        0.17195897       0.22217157      -5.16019213      -0.00241137      -0.00549493      -0.00144086
H        0.79951868       2.66651508      -3.28878124      -0.00035588      -0.00026617      -0.00426145
H       -0.67055614       2.25537617      -1.09871723       0.00075635      -0.00606460      -0.00517595
H        2.28376058      -1.26143632      -1.04986509       0.00309840      -0.00312112       0.00397793
H       -0.65658161      -2.52185927      -1.20854309      -0.00214313      -0.00011026       0.00381942
H       -2.53218904       0.08893450      -1.12278961       0.00060225       0.00117552       0.00158985
H       -1.99582679       1.63082594      -3.43997053      -0.00226356      -0.00086880      -0.00054911
