45
Properties=species:S:1:pos:R:3:forces:R:3 charge=-1 spin=1 energy=-54314.44137479561 free_energy=-54314.44137479561 stress="1.4836418628692627 0.23627258837223053 0.6474989652633667 0.23627258837223053 0.4572305381298065 -0.5473827123641968 0.6474989652633667 -0.5473827123641968 1.1262873411178589" pbc="F F F"
C        0.78335065       1.20385205       1.55400000      -0.15596505      -0.23289354       0.02935505
B       -0.01306466       1.52253670       3.01174485      -0.00163853      -0.00003974       0.00138473
B       -1.30748897       0.31456397       3.07971593      -0.00443654      -0.00105459      -0.00009008
B       -0.54912717      -1.28562886       3.05714524      -0.00139512      -0.00015212       0.00305654
B        0.21535804       0.05103987       3.97022249      -0.00324013      -0.00091824      -0.00038282
B        1.54172011       0.68225401       2.97125146      -0.00156480      -0.00160100      -0.00043914
C        1.47542736      -0.23230179       1.56400000      -0.47787476       0.31065375      -0.37106472
B       -0.92078435       1.10190153       1.54334395      -0.00509542       0.00002950      -0.00190477
B       -1.28637119      -0.64851235       1.55481737       0.00030511       0.00629679       0.00159115
B        0.30815582      -1.45873610       1.49415463       0.00250310       0.00440885       0.00030233
B        1.19643549      -1.05660292       3.00045008      -0.00138225      -0.00016938      -0.00047347
C        1.14300000       0.92400000      -1.55300000      -0.49903104      -0.39206719       0.02806870
B        1.60542057       0.16750531      -2.98764322       0.00072404      -0.00250331      -0.00158937
B        0.63231232      -1.31127528      -3.04838844      -0.00022169      -0.00476487      -0.00008333
B       -1.07447661      -0.84278194      -3.07174823      -0.00065975      -0.00264151      -0.00228772
B        0.13035786       0.13160410      -3.96909615      -0.00015495      -0.00448404       0.00131704
B        0.50950526       1.55429365      -2.97733727      -0.00155365      -0.00318896       0.00026081
C       -0.40000000       1.32300000      -1.56800000       0.21310291       0.20423751       0.29265368
B        1.30679808      -0.77018526      -1.50340870       0.00095572      -0.00463685       0.00219983
B       -0.35206125      -1.43546514      -1.54259315       0.00442285       0.00196772      -0.00158543
B       -1.43127501      -0.01656337      -1.52616278       0.00327905       0.00226736       0.00101264
B       -1.14331958       0.91578425      -3.02626140       0.00051980      -0.00226954       0.00104822
Co       0.00000000       0.00000000       0.00000000       0.93572110       0.13902292       0.01067543
H        1.32821872       2.01031778       1.08805264       0.00461870      -0.00023900       0.00063315
H       -0.03607054       2.63509278       3.41672123       0.00017361       0.00195281      -0.00038501
H       -2.32339388       0.54669624       3.64347585      -0.00299764       0.00080584      -0.00113235
H       -1.00793288      -2.22730035       3.61060888      -0.00367967      -0.00221229      -0.00177604
H        0.28909072       0.07543720       5.15355133      -0.00230697      -0.00145884      -0.00169516
H        2.57125101       1.16668676       3.29509425      -0.00317336      -0.00247627      -0.00175816
H        2.42307896      -0.33026334       1.06121641       0.00293317       0.00330553      -0.00097969
H       -1.56620844       1.99632622       1.09601052       0.00604858      -0.00450612       0.00246275
H       -2.30693587      -1.13841141       1.20094397      -0.00163396      -0.00026946      -0.00232028
H        0.58848567      -2.51983241       1.05191013       0.00093060       0.00020992      -0.00048613
H        2.03238533      -1.79529519       3.39604161      -0.00356324       0.00057126      -0.00342120
H        1.82653957       1.60434146      -1.07078871      -0.00090173       0.00441411      -0.00105675
H        2.71261894       0.32343309      -3.37784136       0.00299855      -0.00015719       0.00039699
H        1.04802105      -2.28135812      -3.58686342       0.00174655      -0.00439802       0.00294511
H       -1.90992676      -1.46175354      -3.63934024      -0.00160072      -0.00554235       0.00335976
H        0.16213703       0.19738034      -5.15276015      -0.00109846      -0.00482441       0.00287908
H        0.79633292       2.65512927      -3.30183220      -0.00184975      -0.00512530       0.00126372
H       -0.67187353       2.25662195      -1.10137489       0.00313643       0.00254409       0.00218819
H        2.28254002      -1.26028537      -1.03136017      -0.00674048       0.00643239      -0.00359277
H       -0.65931433      -2.52099558      -1.17822746       0.00025493      -0.00062663       0.00343283
H       -2.53268905       0.09219037      -1.10657977      -0.00195237       0.00087112       0.00252398
H       -2.00014208       1.62031699      -3.43906477       0.00133709      -0.00477085       0.00349253
