45
Properties=species:S:1:pos:R:3:forces:R:3 charge=-1 spin=1 energy=-54314.4153719117 free_energy=-54314.4153719117 stress="1.540259838104248 0.2273344099521637 0.5374923944473267 0.2273344099521637 0.5169544219970703 -0.5229042172431946 0.5374923944473267 -0.5229042172431946 0.8717389106750488" pbc="F F F"
C        0.86541892       1.14627575       1.55400000      -0.18234015      -0.23193876       0.05789662
B        0.09287715       1.52004848       3.01285662       0.00494510      -0.00029775      -0.00249821
B       -1.28271681       0.40499130       3.08182689       0.00464469      -0.00050421       0.00232754
B       -0.63716752      -1.24414882       3.05948615       0.00362448      -0.00149677      -0.00435188
B        0.21854523       0.03616969       3.97202363      -0.00120153       0.00222714      -0.00225623
B        1.58487385       0.57317836       2.97159480      -0.00032468       0.00150859      -0.00234052
C        1.45562873      -0.33465652       1.56400000      -0.45916268       0.36037338      -0.35083663
B       -0.84180423       1.16277677       1.54547881       0.00416776      -0.00276992      -0.00018155
B       -1.32832569      -0.55761535       1.55784927       0.00255413      -0.00818003      -0.00286373
B        0.20750057      -1.47606059       1.49554877      -0.00812134      -0.00274852       0.00138912
B        1.11993146      -1.13697909       3.00132991       0.00221202       0.00338816       0.00303296
C        1.14300000       0.92400000      -1.55300000      -0.50812471      -0.40509927       0.00120146
B        1.60604829       0.16763557      -2.98907916      -0.00163189       0.00510414       0.00390442
B        0.63229022      -1.31109187      -3.05145237      -0.00047798       0.00365084      -0.00159628
B       -1.07463915      -0.84215045      -3.07485226      -0.00120186       0.00467246       0.00320355
B        0.13077331       0.13240807      -3.97121863       0.00252086      -0.00062762       0.00257607
B        0.50977692       1.55399108      -2.97742143       0.00095882      -0.00015746       0.00210169
C       -0.40000000       1.32300000      -1.56800000       0.22888359       0.20224304       0.28629109
B        1.30567254      -0.77031472      -1.50654974      -0.00360041       0.00312266       0.00113226
B       -0.35283754      -1.43510832      -1.54688879      -0.00716625       0.00030513       0.00177311
B       -1.43123507      -0.01498736      -1.52781694      -0.00135200      -0.00617806      -0.00167075
B       -1.14288871       0.91627651      -3.02724017       0.00256759       0.00258087      -0.00165691
Co       0.00000000       0.00000000       0.00000000       0.93061471       0.08788706       0.00525127
H        1.46763800       1.91171087       1.09023210      -0.00405123       0.00518689       0.00268521
H        0.14858127       2.63243599       3.41551017      -0.00283163      -0.00310510       0.00319638
H       -2.28042810       0.70815780       3.64460610       0.00029597      -0.00083939      -0.00042473
H       -1.16088352      -2.15265050       3.61122349       0.00124575       0.00380001      -0.00093870
H        0.29468205       0.05552617       5.15534936      -0.00204402      -0.00063680      -0.00300372
H        2.64633402       0.98467062       3.29267196      -0.00302394      -0.00061856       0.00530849
H        2.39512697      -0.49591969       1.06309055       0.00005695      -0.00295512       0.00233045
H       -1.42346536       2.10033774       1.10007166      -0.00454816       0.00235088       0.00234955
H       -2.38055788      -0.97656685       1.20553756       0.00231759       0.00072681       0.00449693
H        0.41459824      -2.55463182       1.05555078      -0.00120515       0.00270707       0.00490202
H        1.90309122      -1.93223094       3.39429545      -0.00034140      -0.00212993       0.00526662
H        1.82533985       1.60642397      -1.07280889       0.00555513      -0.00292966      -0.00305666
H        2.71432028       0.32503457      -3.37641443      -0.00486843      -0.00458861      -0.00366655
H        1.04922545      -2.28169472      -3.58828867      -0.00172265      -0.00087737       0.00031513
H       -1.91084931      -1.46186558      -3.64099660       0.00309080       0.00125470       0.00217145
H        0.16297908       0.19926852      -5.15482652      -0.00169070      -0.00309427       0.00323619
H        0.79672341       2.65549705      -3.29880172      -0.00073371      -0.00374838      -0.00641168
H       -0.66933290       2.25701194      -1.10139896      -0.00414382       0.00035434      -0.00435256
H        2.28168726      -1.26130385      -1.03748011       0.00383010      -0.00565736      -0.00175518
H       -0.66154457      -2.52089808      -1.18499702      -0.00003537       0.00099798      -0.00381918
H       -2.53315874       0.09483466      -1.10974076       0.00391941      -0.00157004      -0.00531334
H       -1.99962696       1.62189546      -3.43735923      -0.00205987      -0.00169300      -0.00534434
