45
Properties=species:S:1:pos:R:3:forces:R:3 charge=-1 spin=1 energy=-242.2315673828125 free_energy=-242.2315673828125 stress="-4.6315470569879835e-08 3.89162053693326e-08 -5.597974084281532e-09 3.89162053693326e-08 -8.598265566206464e-08 1.3239480622928568e-08 -5.597974084281532e-09 1.3239480622928568e-08 -2.2773328112180025e-07" pbc="F F F"
C        0.02637464       1.43603704       1.55400000      -0.10644172       0.18415006       0.26601923
B       -0.80584745       1.28671900       3.02001536      -0.00005035       0.00165747       0.00041625
B       -1.27428257      -0.41532263       3.06367416      -0.00115871       0.00065982       0.00196901
B        0.22579734      -1.37748257       3.05185010       0.00056702      -0.00033033       0.00046636
B        0.16125167       0.15872854       3.96662755       0.00068034       0.00190457       0.00096666
B        0.94308409       1.37823374       3.02364702       0.00028261       0.00040705      -0.00019026
C        1.37433455       0.58485429       1.56400000       0.06270942      -0.06392816       0.14925489
B       -1.35618930       0.47135776       1.53129207      -0.00198391       0.00219411       0.00022131
B       -0.73948915      -1.21404783       1.55135579      -0.00083396      -0.00103092       0.00024033
B        1.04620821      -1.06206038       1.50214510       0.00169873      -0.00136039      -0.00344265
B        1.58395661      -0.24844931       3.01498927       0.00008707       0.00183968      -0.00082049
C        1.14300000       0.92400000      -1.55300000       0.10791586      -0.05562308      -0.21826038
B        1.60874822       0.17615813      -2.99318280       0.00012537      -0.00106611      -0.00232729
B        0.66012541      -1.31413202      -3.01845862      -0.00096478       0.00010675      -0.00227603
B       -1.06200167      -0.85487004      -3.05305148       0.00019932      -0.00044468      -0.00035839
B        0.13660497       0.11819739      -3.95848895      -0.00095297      -0.00045612      -0.00010029
B        0.50143870       1.52980808      -3.03060955       0.00021811       0.00064630      -0.00085958
C       -0.40000000       1.32300000      -1.56800000      -0.16932872       0.25285721      -0.26480508
B        1.34200087      -0.74296104      -1.48543277       0.00521708      -0.00267554      -0.00026231
B       -0.32055351      -1.42843189      -1.52479299       0.00062572      -0.00176325      -0.00106686
B       -1.42107076      -0.01701894      -1.52562906      -0.00107539      -0.00278631       0.00277843
B       -1.13540560       0.90867871      -3.03678468      -0.00126631      -0.00108674      -0.00143521
Co       0.00000000       0.00000000       0.00000000       0.10744316      -0.34093487       0.06848235
H        0.02903635       2.42112648       1.07714422       0.00096469       0.00599734      -0.00276344
H       -1.43647307       2.21126960       3.42949126       0.00029121       0.00004290       0.00005236
H       -2.26042541      -0.77869672       3.62928280      -0.00131433       0.00024690       0.00118496
H        0.31311884      -2.43328425       3.60163611      -0.00097867       0.00028732       0.00184777
H        0.17242878       0.16782340       5.15619639      -0.00022019       0.00118712       0.00061084
H        1.55783078       2.34085050       3.34687505      -0.00038996       0.00049067      -0.00045374
H        2.25815382       0.99540231       1.06802159       0.00224523      -0.00077558      -0.00128390
H       -2.38286950       0.89140232       1.08672523       0.00015686       0.00071463       0.00285231
H       -1.34179357      -2.17048507       1.15953817      -0.00043905       0.00207614       0.00021020
H        1.85686891      -1.82372900       1.07008007      -0.00027256       0.00334540      -0.00136686
H        2.68656394      -0.45527163       3.41645182      -0.00114086       0.00097968       0.00090563
H        1.85850213       1.59483378      -1.06895172       0.00137289       0.00288549       0.00123332
H        2.72284653       0.31607241      -3.39166398      -0.00099188       0.00057825      -0.00100954
H        1.06662078      -2.29904048      -3.55608112      -0.00110734       0.00067401      -0.00046081
H       -1.88661568      -1.51065340      -3.61405617       0.00014775       0.00018904       0.00079747
H        0.15674737       0.11389151      -5.14805779      -0.00105153       0.00023153       0.00085413
H        0.79583168       2.62991052      -3.36526787      -0.00001369       0.00151822      -0.00039372
H       -0.70175853       2.26820595      -1.10606205      -0.00276324       0.00474614       0.00264940
H        2.34030695      -1.21115917      -1.03007694      -0.00033371      -0.00074420      -0.00037932
H       -0.61858618      -2.51072592      -1.11273119       0.00210365       0.00133622       0.00082546
H       -2.53147453       0.08210595      -1.09535599       0.00079515       0.00026241      -0.00044464
H       -2.01753323       1.58893248      -3.45988697      -0.00077336       0.00079338      -0.00007786
