45
Properties=species:S:1:pos:R:3:forces:R:3 charge=-1 spin=1 energy=-54314.335553186116 free_energy=-54314.335553186116 stress="-0.06790205091238022 -0.03546808660030365 -0.3749106824398041 -0.03546808660030365 -0.2972603440284729 0.1772988736629486 -0.3749106824398041 0.1772988736629486 1.995383858680725" pbc="F F F"
C       -0.89142472       1.15016034       1.54813906      -0.01267483      -0.00868724      -0.01952942
B       -1.42970646       0.57118319       3.04055283      -0.01087211      -0.03535261      -0.00008541
B       -0.73183916      -1.04723052       3.15820367      -0.02460233       0.01281332      -0.00875065
B        1.02920218      -0.88198313       3.10316536      -0.00373197      -0.00933276      -0.01506179
B        0.05100191       0.32529338       3.98693076       0.01279129       0.01513410      -0.01581751
B       -0.11763640       1.74305142       2.93223607       0.03956456      -0.00149694       0.00339295
C        0.67218503       1.30192758       1.50530405       0.01578730      -0.01744070      -0.01515695
B       -1.36566369      -0.47344149       1.58772634       0.01939541      -0.03466760      -0.02306673
B        0.13792247      -1.39895725       1.63600000       0.21594965      -0.14563668      -0.34613496
B        1.45489632      -0.20022406       1.51379772      -0.01097076       0.02092711       0.00933061
B        1.40235623       0.83413476       2.96474918      -0.00867305       0.02749039      -0.00071469
C        1.01863579       0.99339812      -1.58080296       0.01335323      -0.00758592       0.01865342
B        1.50135502       0.32046452      -3.05193221       0.00877466      -0.03334015       0.00403283
B        0.63522115      -1.21593342      -3.13529699       0.02800409       0.00964399       0.00955634
B       -1.09810743      -0.86284392      -3.09951255       0.00120449      -0.00510915       0.01146861
B        0.00906092       0.21007799      -4.00507838      -0.01312028       0.01860504       0.01380403
B        0.32140768       1.62881643      -2.98581804      -0.03260069       0.00200826      -0.00575223
C       -0.51996524       1.31291688      -1.55481295      -0.02258823      -0.01738886       0.01518736
B        1.31463061      -0.67186252      -1.57297903      -0.02253787      -0.02158205       0.02903554
B       -0.27500000      -1.43300000      -1.61500000      -0.24991153      -0.07965245       0.41663173
B       -1.45591007      -0.09933171      -1.52894228       0.01127146       0.02807119      -0.01119571
B       -1.28692189       0.88610685      -3.00709737       0.00608841       0.01991229      -0.00291829
Co       0.00000000       0.00000000       0.00000000       0.06170150       0.24527031      -0.06229682
H       -1.47589931       1.91819704       1.06824914      -0.02351071      -0.00985121      -0.04041219
H       -2.47684686       0.94121691       3.44992424      -0.00815895      -0.00557936      -0.01315906
H       -1.28540074      -1.90497553       3.75908276      -0.00085276       0.00569895      -0.01743506
H        1.77313537      -1.61834347       3.65721062      -0.00560044       0.00318925       0.02376445
H        0.08063937       0.45056439       5.16656284      -0.01973732       0.00261923      -0.02035654
H       -0.20519764       2.89167761       3.20118673      -0.01637928       0.00154595      -0.00693469
H        1.07703359       2.16712642       1.00275733      -0.00328215       0.00568700      -0.00718864
H       -2.43342557      -0.80597749       1.20073223       0.00463101       0.00089586      -0.02151484
H        0.24066354      -2.53547129       1.31196227       0.00451101      -0.00559163      -0.00178752
H        2.54303441      -0.30440779       1.05817666      -0.00669328      -0.00591310      -0.00345277
H        2.38987350       1.39381584       3.30263879      -0.01215781       0.00488131       0.01328404
H        1.68076620       1.70607811      -1.11678587       0.01928235      -0.00665046       0.03938356
H        2.58592608       0.56455433      -3.45840065       0.00426839      -0.00282542       0.00751536
H        1.09854216      -2.14367756      -3.70747602       0.00253074       0.00450368       0.01244337
H       -1.91199814      -1.52969304      -3.64311953       0.00177260       0.00317442      -0.01813898
H        0.00158376       0.30713893      -5.18767243       0.01353327       0.00044669       0.01871992
H        0.53465443       2.75373483      -3.28252008       0.01111568       0.00414395       0.00324145
H       -0.83437765       2.22989643      -1.08006200       0.00806068       0.00948948       0.00610288
H        2.33800457      -1.10913217      -1.17094645      -0.00514057       0.00946430       0.02591274
H       -0.49955664      -2.54233523      -1.26007709      -0.00468519      -0.00440684       0.00242773
H       -2.55141908      -0.07785280      -1.07888453       0.00498750      -0.00134997       0.00078715
H       -2.20635179       1.53837245      -3.37010527       0.00990303       0.00382532      -0.00781489
