45
Properties=species:S:1:pos:R:3:forces:R:3 charge=-1 spin=1 energy=-54314.45014287728 free_energy=-54314.45014287728 stress="0.7480459213256836 0.2912110388278961 -0.408128559589386 0.2912110388278961 1.0123628377914429 -1.0269814729690552 -0.408128559589386 -1.0269814729690552 1.3502318859100342" pbc="F F F"
C        1.08311490      -0.94327096       1.55400000      -0.19091183       0.00877900      -0.08756220
B        1.52160093      -0.22084788       3.01943817       0.00002642      -0.00032323      -0.00042082
B        0.51751660       1.23350487       3.11744741      -0.00453805      -0.00039258       0.00128995
B       -1.17537979       0.71565251       3.10329133      -0.00401326      -0.00258411      -0.00288180
B        0.04207603      -0.24726386       3.99045368      -0.00160886       0.00054377      -0.00074448
B        0.46694773      -1.63651624       2.96510636      -0.00262901      -0.00119858       0.00019597
C       -0.43538084      -1.42873844       1.56400000       0.18910517       0.56055152      -0.34593129
B        1.22388322       0.74547425       1.56422620      -0.00586063      -0.00204010       0.00198209
B       -0.44680280       1.36053344       1.60905947      -0.00299837       0.00464085      -0.00194987
B       -1.48386722      -0.09349507       1.53748915      -0.00345663      -0.00220159      -0.00062496
B       -1.20255841      -1.04705272       3.01689314      -0.00135000      -0.00067052       0.00057175
C        1.14300000       0.92400000      -1.55300000      -0.33495545      -0.07639840       0.34078401
B        1.63456792       0.18821214      -2.98523643      -0.00052964       0.00132706      -0.00042292
B        0.68574888      -1.30079506      -3.07533269      -0.00513648       0.00136297      -0.00368211
B       -1.02530223      -0.85011686      -3.12058520      -0.00465624       0.00373180       0.00197298
B        0.17673468       0.14593177      -3.98837051      -0.00227850       0.00066867       0.00071141
B        0.52261561       1.56350920      -2.97354503      -0.00321767       0.00189510       0.00039370
C       -0.40000000       1.32300000      -1.56800000       0.07460413      -0.07995054       0.10191090
B        1.32668481      -0.75281740      -1.51037544      -0.00638807       0.00202475      -0.00307922
B       -0.31382019      -1.43515680      -1.59337112      -0.00265491      -0.00436918       0.00146539
B       -1.41675636      -0.03345928      -1.58257158      -0.00474929       0.00230924      -0.00000290
B       -1.11833285       0.91225182      -3.05376312      -0.00108163       0.00195479      -0.00085962
Co       0.00000000       0.00000000       0.00000000       0.34199652      -0.43081889      -0.00136186
H        1.79252783      -1.58470437       1.06043504      -0.00622445       0.00527015      -0.00044013
H        2.62949257      -0.36156315       3.41057444       0.00048995       0.00075152       0.00436288
H        0.90543179       2.19859093       3.68547910      -0.00270904       0.00029167       0.00070596
H       -2.03803965       1.29923560       3.66913405      -0.00122076      -0.00211009      -0.00096328
H        0.06653506      -0.33979448       5.17254181      -0.00232860      -0.00111840      -0.00039313
H        0.80354235      -2.72644502       3.27243841      -0.00026032      -0.00101415       0.00048534
H       -0.66342767      -2.34618510       1.04945067      -0.00000909       0.00241626      -0.00042685
H        2.20493537       1.26079499       1.13128375      -0.00255934      -0.00021589      -0.00587921
H       -0.78226956       2.44652899       1.25109350      -0.00022049      -0.00331006      -0.00049356
H       -2.58056681      -0.20372341       1.10952217       0.00206350       0.00308506       0.00208778
H       -2.05100093      -1.77080997       3.41186004       0.00081199      -0.00187683      -0.00110521
H        1.80960514       1.59638561      -1.04148583      -0.00417350      -0.00417992       0.00015486
H        2.74595453       0.36201995      -3.35222273       0.00099599       0.00033972      -0.00478715
H        1.12506942      -2.26287819      -3.60995607      -0.00271903       0.00061524      -0.00352096
H       -1.84848272      -1.47598392      -3.69977684      -0.00161169       0.00395576      -0.00095684
H        0.22542942       0.22330502      -5.17077470      -0.00212095       0.00361927       0.00094826
H        0.80956556       2.66606589      -3.28572779      -0.00011632       0.00140944       0.00093768
H       -0.67564170       2.25133974      -1.09612187      -0.00002869      -0.00120603       0.00129851
H        2.31061858      -1.22800225      -1.04063611      -0.00447244      -0.00038110       0.00765990
H       -0.61024512      -2.52853182      -1.22379219       0.00005822       0.00453124      -0.00023306
H       -2.52783426       0.04727803      -1.18748113       0.00218447      -0.00286636      -0.00291276
H       -1.97824625       1.60590463      -3.47671288       0.00145291       0.00315140       0.00171681
