45
Properties=species:S:1:pos:R:3:forces:R:3 charge=-1 spin=1 energy=-54314.469706552205 free_energy=-54314.469706552205 stress="0.7980431914329529 0.42126843333244324 -0.7500622868537903 0.42126843333244324 0.6639688014984131 0.2849557101726532 -0.7500622868537903 0.2849557101726532 0.8404555320739746" pbc="F F F"
C       -1.32931379       0.54389598       1.55400000       0.13302404       0.06354729      -0.22023757
B       -1.50050522      -0.29304033       3.00045570       0.01018712       0.00493065       0.00653525
B       -0.06937846      -1.32863383       3.08602471      -0.00660883       0.00008287       0.00742996
B        1.35513463      -0.27904694       3.08558916       0.00036425      -0.01194873       0.00575274
B       -0.11468157       0.21902569       3.97589724       0.01123791      -0.00116330       0.00507072
B       -0.97575910       1.39692459       2.96359214       0.01532156      -0.00299747       0.00340398
C       -0.04828044       1.49282249       1.56400000      -0.18498079      -0.43507913      -0.25794238
B       -0.90131343      -1.10860596       1.52712242      -0.02527163       0.02464518      -0.00806482
B        0.88096744      -1.12841654       1.57010079      -0.02519200      -0.02293389       0.02937988
B        1.37372944       0.58437175       1.53095003       0.00623005      -0.01815942       0.03979340
B        0.79793235       1.39249391       3.01567142       0.01420787      -0.00125704      -0.00237947
C        1.14300000       0.92400000      -1.55300000      -0.45706689      -0.24355666       0.20642720
B        1.60462504       0.15723598      -2.96982629      -0.01093996      -0.00218688      -0.00164569
B        0.62767096      -1.31589532      -3.02786068       0.00839982       0.00012812      -0.00054792
B       -1.07637981      -0.84275772      -3.07180705       0.00695376      -0.01347102      -0.00239166
B        0.13704813       0.12530216      -3.96171918      -0.00739481      -0.00736356      -0.00291013
B        0.51526825       1.55179551      -2.97510501      -0.01368917      -0.00949959      -0.00310593
C       -0.40000000       1.32300000      -1.56800000       0.15638804       0.16001430       0.06500839
B        1.30023825      -0.77250937      -1.46772193       0.01780392       0.03329723       0.01335914
B       -0.35835445      -1.42983171      -1.52541619       0.03524964      -0.01354638      -0.01807400
B       -1.43452634      -0.01206484      -1.54356385       0.00193278      -0.01805933      -0.04215832
B       -1.14054134       0.91951189      -3.03284961      -0.01118852      -0.00590109      -0.00123102
Co       0.00000000       0.00000000       0.00000000       0.28063175       0.66511363       0.15501849
H       -2.21006678       0.91378227       1.05386699       0.00836956      -0.00096242       0.00704994
H       -2.59120736      -0.53314677       3.39302550       0.01322920       0.00048958      -0.00487547
H       -0.10761031      -2.36730849       3.65364605       0.00170596      -0.00779302      -0.00868735
H        2.35985536      -0.54955481       3.65278681       0.00610009      -0.01130948      -0.01206371
H       -0.16994212       0.28894084       5.15823996       0.01397463      -0.00716613       0.00446364
H       -1.65186595       2.31734522       3.27358111       0.01424709      -0.00635772       0.00072263
H       -0.13755429       2.44902748       1.07162473      -0.00498609       0.00391949       0.02453609
H       -1.65285969      -1.91699797       1.09651904      -0.02600198       0.01194333       0.02023914
H        1.56171581      -2.03546419       1.22454965      -0.02156995      -0.01885646       0.03092805
H        2.36150113       1.05499430       1.06599111       0.00816075      -0.02829564       0.03284646
H        1.35262126       2.35937738       3.41553006       0.01612193      -0.00116999      -0.00490706
H        1.82014167       1.58873339      -1.04342569      -0.00815529       0.00034650      -0.01528213
H        2.71451613       0.30201675      -3.35597189      -0.01328067      -0.00679833       0.00963748
H        1.04002949      -2.28799305      -3.56406455       0.00314494      -0.00943700       0.01508469
H       -1.90890551      -1.46233382      -3.64396107       0.00150619      -0.01432437       0.01393448
H        0.17858895       0.18576383      -5.14524047      -0.00684068      -0.01684602      -0.00243600
H        0.80704561       2.65129861      -3.30189903      -0.00879234      -0.01355213      -0.00253483
H       -0.66718982       2.26744621      -1.11722997       0.00343371       0.00506126      -0.02684793
H        2.27396125      -1.26197300      -1.00493495       0.02547376       0.02064056      -0.02004256
H       -0.67139830      -2.51182858      -1.15467094       0.02319676      -0.00988674      -0.01722494
H       -2.53248580       0.10145928      -1.10115621       0.00884743      -0.02721971      -0.02104534
H       -1.99033706       1.62925272      -3.45326823      -0.01348524      -0.00706116       0.00001442
