45
Properties=species:S:1:pos:R:3:forces:R:3 charge=-1 spin=1 energy=-242.30935668945312 free_energy=-242.30935668945312 stress="-6.965984766793554e-08 2.2771544649913267e-08 -4.474441439583643e-08 2.2771544649913267e-08 -8.543968021967885e-08 9.921512145183442e-08 -4.474441439583643e-08 9.921512145183442e-08 -1.6366720956284553e-07" pbc="F F F"
C        1.27913966      -0.65322257       1.55400000       0.19451046      -0.02491197       0.30956483
B        1.51420785       0.13976084       3.03351923       0.00118803      -0.00028865      -0.00137930
B        0.18867762       1.31096719       3.08936507       0.00118165       0.00099669      -0.00014938
B       -1.33484231       0.38469443       3.06428739      -0.00035244       0.00088849       0.00005506
B        0.07669860      -0.24462253       3.97734680      -0.00102558      -0.00002877      -0.00059851
B        0.82802758      -1.47314879       3.02604548      -0.00160098      -0.00067332      -0.00133739
C       -0.07680506      -1.49162696       1.56400000      -0.05804941      -0.07513723       0.00364900
B        1.01604110       1.01124066       1.55368135       0.00315574       0.00113164       0.00021027
B       -0.76278837       1.20690106       1.59497764       0.00238481      -0.00109956       0.00064282
B       -1.40167311      -0.46949650       1.49464732      -0.00360507      -0.00116488      -0.00833070
B       -0.91376692      -1.33291454       3.01830793      -0.00034728       0.00009845      -0.00157278
C        1.14300000       0.92400000      -1.55300000       0.11107849       0.00611034      -0.16826680
B        1.62053222       0.19966636      -3.00121462       0.00104930       0.00196458       0.00205804
B        0.67381016      -1.29340065      -3.05024359       0.00157090       0.00020853      -0.00030414
B       -1.04809547      -0.83308827      -3.08568197      -0.00078143       0.00032763      -0.00026696
B        0.15475500       0.15669196      -3.97481733      -0.00108865       0.00163547       0.00015917
B        0.51278466       1.55555608      -3.03005826      -0.00147144       0.00111850       0.00222078
C       -0.40000000       1.32300000      -1.56800000      -0.15468638       0.30226213      -0.20728253
B        1.33646910      -0.74366832      -1.50391853       0.00380817       0.00014530      -0.00221954
B       -0.31045347      -1.43632786      -1.58490793       0.00102658      -0.00045183      -0.00173658
B       -1.40740235      -0.01799713      -1.54203376      -0.00341326       0.00122422       0.00924279
B       -1.12217936       0.93318616      -3.05208056      -0.00054976       0.00106096       0.00194387
Co       0.00000000       0.00000000       0.00000000      -0.08013982      -0.22232205       0.06532631
H        2.15481186      -1.08777241       1.06576230       0.00255098      -0.00283129       0.00197595
H        2.62382152       0.30035287       3.43844279      -0.00184384      -0.00175840       0.00135374
H        0.29848366       2.34753814       3.67033353       0.00104852       0.00077958       0.00044944
H       -2.32477472       0.75388613       3.61999353      -0.00075279       0.00322723      -0.00189805
H        0.08105854      -0.26737983       5.16746677      -0.00323355       0.00052029       0.00076251
H        1.42501676      -2.45134927       3.33671614      -0.00218824      -0.00026488       0.00122528
H       -0.09850344      -2.44958302       1.03750832      -0.00292480       0.00338092      -0.00086685
H        1.85208897       1.75244616       1.12547368      -0.00029617      -0.00250727       0.00017127
H       -1.34184324       2.16347378       1.16698585       0.00125038       0.00388124       0.00033402
H       -2.43573328      -0.86139117       1.04228177       0.00169140       0.00368019      -0.00004757
H       -1.58875168      -2.23605817       3.40556762      -0.00252324       0.00224978      -0.00120787
H        1.84691249       1.58812053      -1.04490409       0.00034519       0.00238735      -0.00159449
H        2.74013190       0.34168326      -3.38442720      -0.00279084       0.00162472      -0.00195698
H        1.08624067      -2.26739086      -3.60224585       0.00070735       0.00027075      -0.00162265
H       -1.87488922      -1.47332436      -3.66134524       0.00000447      -0.00231302       0.00123693
H        0.18191343       0.16430757      -5.16478105      -0.00321681       0.00046886      -0.00122139
H        0.81010238       2.66092030      -3.34548829      -0.00246235      -0.00007305      -0.00010543
H       -0.70478319       2.25229037      -1.07623191      -0.00202402      -0.00087669      -0.00214904
H        2.33207550      -1.21595289      -1.04064883      -0.00228927       0.00290093      -0.00024457
H       -0.60587016      -2.51039760      -1.14855337       0.00407114      -0.00302502       0.00264095
H       -2.52497327       0.07334528      -1.12772677       0.00303601      -0.00319261      -0.00031707
H       -2.00687072       1.61668851      -3.46591210      -0.00200294      -0.00162491       0.00145376
