45
Properties=species:S:1:pos:R:3:forces:R:3 charge=-1 spin=1 energy=-242.3092803955078 free_energy=-242.3092803955078 stress="-6.423027087976152e-08 2.5196605690780416e-08 -3.6106747813846596e-08 2.5196605690780416e-08 -8.390947670022797e-08 1.0617534940138285e-07 -3.6106747813846596e-08 1.0617534940138285e-07 -1.5711837875187484e-07" pbc="F F F"
C        1.08311490      -0.94327096       1.55400000       0.18770815      -0.05748680       0.26764259
B        1.50708168      -0.23045575       3.03078345      -0.00067174       0.00006436       0.00076616
B        0.49994611       1.22525729       3.09062284       0.00185170      -0.00050370      -0.00132330
B       -1.20029637       0.69024987       3.07256190      -0.00116864       0.00230839      -0.00217555
B        0.02277848      -0.25993569       3.97948606       0.00034251       0.00146570       0.00045907
B        0.45372860      -1.63160608       3.02493216      -0.00085017      -0.00033958      -0.00156746
C       -0.43538084      -1.42873844       1.56400000      -0.06135812      -0.07065937       0.01671624
B        1.22400991       0.73879754       1.55261091       0.00227854      -0.00034904      -0.00004619
B       -0.45758795       1.35138505       1.59988491       0.00201552       0.00038597      -0.00144161
B       -1.47692983      -0.12110351       1.50202270      -0.00063753      -0.00243434       0.00149724
B       -1.20304381      -1.07722434       3.02416227      -0.00076079      -0.00206917      -0.00420523
C        1.14300000       0.92400000      -1.55300000       0.11847943      -0.01139671      -0.12996225
B        1.62477285       0.19425578      -2.99585540      -0.00095526       0.00352146       0.00057854
B        0.67489541      -1.29808353      -3.04317422       0.00296046       0.00216845      -0.00033967
B       -1.04568541      -0.83317351      -3.08786275      -0.00200248      -0.00150445       0.00048395
B        0.16234473       0.15151447      -3.97370814       0.00150207       0.00212763      -0.00147752
B        0.51918185       1.55223329      -3.03172512       0.00060331       0.00144665       0.00238327
C       -0.40000000       1.32300000      -1.56800000      -0.13575868       0.29361540      -0.21922536
B        1.33138472      -0.74673831      -1.49625581       0.00243282       0.00161130      -0.00015859
B       -0.31956090      -1.43418379      -1.58294748       0.00181498      -0.00029877       0.00102626
B       -1.41105283      -0.01467059      -1.54745219      -0.00003976       0.00371069      -0.00192849
B       -1.11606295       0.93282508      -3.05693991      -0.00089266       0.00478757       0.00514405
Co       0.00000000       0.00000000       0.00000000      -0.09875678      -0.18051440       0.07751092
H        1.82739338      -1.57134853       1.05742661      -0.00276103       0.00567459      -0.00076246
H        2.62458506      -0.34030809       3.43081715      -0.00123122      -0.00024550       0.00128087
H        0.85903573       2.20444977       3.67068105      -0.00113498       0.00032735      -0.00034061
H       -2.06914566       1.28664444       3.63291157      -0.00256461       0.00206951      -0.00153627
H        0.02593637      -0.28426357       5.16959297      -0.00198373       0.00148737       0.00196446
H        0.79810938      -2.72556405       3.33224492      -0.00119888       0.00033161       0.00101852
H       -0.68633479      -2.35443032       1.03983472       0.00326487       0.00154237      -0.00018406
H        2.20802325       1.25983323       1.11538829      -0.00004016      -0.00105092      -0.00177203
H       -0.80186165       2.41762321       1.17716736       0.00152124       0.00130002      -0.00134163
H       -2.57997774      -0.25871500       1.06670248       0.00178068       0.00077749       0.00341642
H       -2.07359714      -1.79261769       3.41326684      -0.00180772       0.00095624      -0.00030608
H        1.84688835       1.58425309      -1.03932063      -0.00298595      -0.00555279       0.00292006
H        2.74648125       0.33218480      -3.37435312      -0.00259092       0.00127355      -0.00186911
H        1.08959928      -2.27445750      -3.58931156      -0.00126759       0.00105017      -0.00335620
H       -1.86962130      -1.47496220      -3.66533747      -0.00372091      -0.00082557      -0.00181167
H        0.19348194       0.15477549      -5.16358725      -0.00195353       0.00207989      -0.00329942
H        0.81810439       2.65674567      -3.34841106      -0.00139948       0.00055802       0.00057708
H       -0.70253042       2.25367219      -1.07812082       0.00128396       0.00063137      -0.00052318
H        2.31934101      -1.21890047      -1.01744445      -0.00097904       0.00060881      -0.00060790
H       -0.62764465      -2.50823976      -1.15488891       0.00126148      -0.00229073       0.00004665
H       -2.53314862       0.08568386      -1.15077708       0.00247815      -0.00136294      -0.00443947
H       -1.99806507       1.61692541      -3.47514065      -0.00210735       0.00100355       0.00056867
