45
Properties=species:S:1:pos:R:3:forces:R:3 charge=-1 spin=1 energy=-242.28436279296875 free_energy=-242.28436279296875 stress="-6.854668299638433e-08 2.5780353851700966e-08 -2.5515841883816393e-08 2.5780353851700966e-08 -9.226422292840653e-08 1.0176265874406454e-07 -2.5515841883816393e-08 1.0176265874406454e-07 -1.422436923803616e-07" pbc="F F F"
C        0.78115616      -1.20527717       1.55400000       0.16914986      -0.10482067       0.23414387
B        1.38538507      -0.64035968       3.03063617      -0.00028976      -0.00062650      -0.00026707
B        0.81907049       1.03631960       3.09090860      -0.00039205       0.00199685       0.00111853
B       -0.96416384       0.99300488       3.07413939       0.00130446      -0.00034977      -0.00079706
B       -0.05040637      -0.25985233       3.97892906       0.00067485       0.00064933       0.00072185
B       -0.01387805      -1.69635724       3.02294555       0.00140579       0.00004997      -0.00012401
C       -0.81232861      -1.25338431       1.56400000      -0.08105162      -0.05459979      -0.00186041
B        1.37934725       0.37320161       1.55185216       0.00169185      -0.00281363      -0.00241908
B       -0.07028405       1.42454896       1.60236815      -0.00080313       0.00186288       0.00142382
B       -1.45740329       0.29143248       1.50802751      -0.00312406       0.00338928       0.00677224
B       -1.45512704      -0.70566044       3.02232296       0.00098139      -0.00028173       0.00033257
C        1.14300000       0.92400000      -1.55300000       0.12526846      -0.00916022      -0.09452294
B        1.62543260       0.19320401      -2.99280395       0.00018179       0.00067215      -0.00122695
B        0.67697588      -1.29961711      -3.03540470      -0.00118509      -0.00143363      -0.00270580
B       -1.04549036      -0.83744304      -3.08318210       0.00141913       0.00038681      -0.00039480
B        0.16237490       0.14805671      -3.97004176       0.00038477      -0.00042847      -0.00093636
B        0.51878259       1.55059451      -3.03083597       0.00137697       0.00032668      -0.00034938
C       -0.40000000       1.32300000      -1.56800000      -0.13719019       0.28414819      -0.21881434
B        1.33160370      -0.74637223      -1.48820906       0.00087172       0.00023006       0.00323313
B       -0.32202906      -1.43429599      -1.57702778      -0.00145584      -0.00068495      -0.00144671
B       -1.41549575      -0.01480082      -1.55036793      -0.00392148      -0.00408103      -0.00763783
B       -1.11757119       0.93030826      -3.05426970       0.00071942      -0.00013261      -0.00097206
Co       0.00000000       0.00000000       0.00000000      -0.09224062      -0.11824675       0.09261698
H        1.32487907      -2.00720085       1.04644964       0.00171392      -0.00170410       0.00023307
H        2.42870830      -1.05535046       3.43127325       0.00070827       0.00255834      -0.00162624
H        1.43468201       1.87695161       3.67308742       0.00019462       0.00270248      -0.00075248
H       -1.63200053       1.80682968       3.63697807       0.00073542      -0.00240701      -0.00147927
H       -0.05732326      -0.28440752       5.16913784       0.00280696       0.00087745       0.00032710
H        0.01346716      -2.84356807       3.32793390       0.00179830       0.00079083       0.00103249
H       -1.30588496      -2.07574092       1.03876872      -0.00083999      -0.00177658      -0.00155812
H        2.45904951       0.60180488       1.09157247       0.00224699       0.00178868       0.00282194
H       -0.10710318       2.54805436       1.18905236      -0.00179301       0.00105225      -0.00025020
H       -2.55441773       0.46652797       1.07136454      -0.00167071      -0.00060733       0.00079072
H       -2.48958090      -1.15328683       3.41077017       0.00155894      -0.00013821       0.00105765
H        1.84726999       1.58058452      -1.03419108       0.00211549       0.00103590       0.00098598
H        2.74650630       0.33176839      -3.37306814       0.00134149      -0.00163220       0.00111809
H        1.09291513      -2.27531619      -3.58222446      -0.00028946      -0.00215861      -0.00049362
H       -1.86644447      -1.48213010      -3.66230267       0.00099236       0.00290076       0.00050601
H        0.19033944       0.15038188      -5.16012238       0.00257095      -0.00061426      -0.00055042
H        0.81531742       2.65549370      -3.34823458       0.00211470       0.00029480      -0.00087194
H       -0.70008974       2.25721951      -1.08298564      -0.00000202       0.00134180       0.00069645
H        2.30569978      -1.21357064      -0.97798083       0.00375799      -0.00232847      -0.00485978
H       -0.62669682      -2.50682099      -1.14108475      -0.00371292       0.00020565      -0.00132681
H       -2.53774554       0.08308150      -1.15422090      -0.00157134       0.00112644      -0.00054225
H       -2.00018150       1.61311564      -3.47360927       0.00144650       0.00063893      -0.00114729
