45
Properties=species:S:1:pos:R:3:forces:R:3 charge=-1 spin=1 energy=-242.3119659423828 free_energy=-242.3119659423828 stress="-6.658135731640868e-08 2.3964311424151674e-08 -4.114493634688188e-08 2.3964311424151674e-08 -8.461594092068481e-08 1.0228289681890601e-07 -4.114493634688188e-08 1.0228289681890601e-07 -1.5879747650160425e-07" pbc="F F F"
C        1.20385205      -0.78335065       1.55400000       0.19047602      -0.03065622       0.29262069
B        1.52312484      -0.01836649       3.03188438      -0.00090662      -0.00002840      -0.00225493
B        0.32424833       1.28329994       3.09019567       0.00252618       0.00014551      -0.00110888
B       -1.28556714       0.51784860       3.06984708      -0.00139678       0.00197531      -0.00090116
B        0.05623711      -0.25323535       3.97903901      -0.00013286       0.00188890       0.00000842
B        0.67428182      -1.55203407       3.02546273      -0.00080304      -0.00074440      -0.00259164
C       -0.23230179      -1.47542736       1.56400000      -0.04870200      -0.07436633       0.01527128
B        1.11153699       0.90099861       1.55299958       0.00161460      -0.00217538       0.00081033
B       -0.63837616       1.27618231       1.59811550       0.00212124       0.00140768      -0.00205226
B       -1.44452081      -0.32414810       1.49887524       0.00305742      -0.00241853      -0.00435989
B       -1.04325640      -1.23311399       3.02258539      -0.00093479      -0.00130606      -0.00400659
C        1.14300000       0.92400000      -1.55300000       0.11021613      -0.00687090      -0.14825813
B        1.62347668       0.19637657      -2.99792315      -0.00123200       0.00180347       0.00321127
B        0.67424627      -1.29616352      -3.04612227       0.00362533       0.00202502      -0.00026886
B       -1.04658169      -0.83227646      -3.08773416      -0.00141791      -0.00087527      -0.00080213
B        0.16001113       0.15399223      -3.97445507       0.00148771       0.00062694      -0.00123336
B        0.51737668       1.55374450      -3.03127106       0.00036777       0.00066852       0.00382599
C       -0.40000000       1.32300000      -1.56800000      -0.14097762       0.29716879      -0.21853074
B        1.33268327      -0.74567524      -1.49942375       0.00169614       0.00351529      -0.00315067
B       -0.31670333      -1.43512690      -1.58431664       0.00224968      -0.00024205       0.00066976
B       -1.40945173      -0.01564378      -1.54535462       0.00325185       0.00590597       0.00521477
B       -1.11776464       0.93365572      -3.05574190      -0.00072780       0.00347925       0.00510651
Co       0.00000000       0.00000000       0.00000000      -0.10082994      -0.20633787       0.07217106
H        2.02905066      -1.30414243       1.06210413      -0.00109074      -0.00127133       0.00210253
H        2.64466132       0.02758126       3.43312315      -0.00257096      -0.00073254       0.00196981
H        0.54259719       2.30311037       3.67021051      -0.00044909       0.00025345       0.00025535
H       -2.22995182       0.98741424       3.62870671      -0.00326551       0.00279132      -0.00165199
H        0.06186221      -0.27634934       5.16917757      -0.00339975       0.00077761       0.00086211
H        1.16752415      -2.58713900       3.33370577      -0.00208656      -0.00029269       0.00193013
H       -0.35185363      -2.42637922       1.03869422      -0.00420596      -0.00160409      -0.00053617
H        2.01688421       1.55283494       1.12096544       0.00209006      -0.00142911       0.00232884
H       -1.12365291       2.28501819       1.17298120       0.00538222       0.00214949      -0.00254945
H       -2.51593054      -0.61153721       1.05669597      -0.00025580       0.00331442      -0.00580097
H       -1.80631517      -2.06228227       3.41157394      -0.00292712       0.00109720      -0.00163385
H        1.84637182       1.58579218      -1.04127852       0.00101225       0.00104723      -0.00275361
H        2.74470800       0.33516884      -3.37759864      -0.00402629       0.00168130      -0.00205809
H        1.08808381      -2.27194325      -3.59389719      -0.00083975       0.00147334      -0.00342356
H       -1.87160156      -1.47303162      -3.66492438      -0.00361913      -0.00188925      -0.00097260
H        0.19047469       0.15841504      -5.16434135      -0.00313919       0.00214445      -0.00264408
H        0.81636615       2.65847932      -3.34726780      -0.00263269       0.00013864       0.00042304
H       -0.70343543       2.25308970      -1.07740048      -0.00266682       0.00039233       0.00105248
H        2.32468412      -1.21731501      -1.02837878       0.00126922       0.00025909      -0.00562924
H       -0.62193433      -2.50952921      -1.15512230       0.00528230      -0.00059023       0.00210242
H       -2.52964646       0.08195153      -1.14159489       0.00024734      -0.00390669       0.00535146
H       -2.00017393       1.61811447      -3.47265774      -0.00273673      -0.00039369       0.00188455
