45
Properties=species:S:1:pos:R:3:forces:R:3 charge=-1 spin=1 energy=-242.31723022460938 free_energy=-242.31723022460938 stress="-5.073541942124393e-08 1.4894837585543996e-09 3.044355878500937e-08 1.4894837585543996e-09 -9.800985623087399e-08 1.1146855882770978e-07 3.044355878500937e-08 1.1146855882770978e-07 -1.6713899242404295e-07" pbc="F F F"
C       -0.65322257      -1.27913966       1.55400000      -0.04834425      -0.23685557       0.19057506
B        0.14203373      -1.51906835       3.03237328      -0.00172853       0.00024219      -0.00138526
B        1.30554207      -0.18511824       3.09071882      -0.00196630      -0.00072038      -0.00025652
B        0.37329042       1.33489101       3.08102288       0.00049125      -0.00091447       0.00036792
B       -0.24709190      -0.09235056       3.98112816       0.00188988       0.00215289       0.00046081
B       -1.47078029      -0.84317594       3.02277769       0.00084774      -0.00360251      -0.00133960
C       -1.49162696       0.07680506       1.56400000      -0.06274682       0.04444422       0.07582784
B        1.00194987      -0.99898645       1.53447218       0.00098245       0.00185478      -0.00102130
B        1.18976115       0.78817820       1.60756208       0.00185826      -0.00260073       0.00192061
B       -0.48292889       1.41652311       1.52847169       0.00362130       0.00139049       0.00129238
B       -1.33987424       0.90314835       3.02452556       0.00244354       0.00442680       0.00253346
C        1.14300000       0.92400000      -1.55300000       0.13520512       0.01479366      -0.06387000
B        1.62246206       0.18046619      -2.99137229      -0.00004709       0.00168739       0.00024022
B        0.66772673      -1.30944524      -3.02273533      -0.00045860       0.00200625      -0.00115373
B       -1.05395389      -0.84412495      -3.07551182       0.00232728       0.00080550      -0.00109297
B        0.16265923       0.13090909      -3.96592087      -0.00132642      -0.00154273      -0.00075480
B        0.52352532       1.53833076      -3.03570412       0.00390387       0.00086257       0.00020043
C       -0.40000000       1.32300000      -1.56800000      -0.13860717       0.23932880      -0.30871698
B        1.32006622      -0.74038643      -1.46196678      -0.00136766      -0.00139069       0.00099640
B       -0.33825071      -1.43358588      -1.56517963       0.00225979      -0.00132820      -0.00230810
B       -1.42516017      -0.01302175      -1.55786854      -0.00007221      -0.00348018      -0.00154532
B       -1.11764165       0.92349428      -3.05133305      -0.00291770      -0.00401098      -0.00396566
Co       0.00000000       0.00000000       0.00000000       0.10913657      -0.08013734       0.11409533
H       -1.07255416      -2.15056514       1.04257115       0.00601279       0.00624775       0.00078999
H        0.31616561      -2.63106919       3.42508599      -0.00166567       0.00174564       0.00264353
H        2.34746333      -0.30083495       3.66192218      -0.00284937       0.00163034       0.00109224
H        0.74275645       2.31563348       3.65150011      -0.00190965       0.00064933      -0.00154730
H       -0.26947458      -0.10368006       5.17117580      -0.00213249       0.00235362       0.00077817
H       -2.44734654      -1.44512241       3.32858945      -0.00311506       0.00008105       0.00040305
H       -2.45555717       0.09101815       1.04844639       0.00312513      -0.00155222       0.00570125
H        1.75142565      -1.83462548       1.12552215       0.00059371      -0.00216570      -0.00180258
H        2.14645084       1.37211171       1.18666285      -0.00051489      -0.00265369       0.00035127
H       -0.87822530       2.44663835       1.06779778       0.00010467       0.00097855      -0.00064060
H       -2.24922220       1.56370916       3.42091605      -0.00375497       0.00213507      -0.00133915
H        1.84636735       1.57985743      -1.03240330      -0.00186750      -0.00455681      -0.00118970
H        2.74659150       0.30564325      -3.36737467      -0.00058487       0.00165226      -0.00179298
H        1.08610315      -2.29325510      -3.55371358      -0.00124957       0.00281239      -0.00251567
H       -1.87359257      -1.48999469      -3.65431639       0.00089115       0.00354680      -0.00020841
H        0.19155483       0.12446689      -5.15591332      -0.00087227       0.00302139      -0.00065149
H        0.82431862       2.63915707      -3.36273595       0.00051010       0.00367162       0.00049281
H       -0.69716555       2.26456391      -1.09777968       0.00263759      -0.00013578      -0.00279246
H        2.31376221      -1.21138753      -0.99734336       0.00204087      -0.00095165       0.00197200
H       -0.63607646      -2.50444081      -1.12114259       0.00169366       0.00107203      -0.00071697
H       -2.53983154       0.08818479      -1.13559458      -0.00096038      -0.00079339      -0.00059438
H       -1.99295265       1.60968494      -3.47948466      -0.00151682       0.00380015       0.00046726
