45
Properties=species:S:1:pos:R:3:forces:R:3 charge=-1 spin=1 energy=-54314.337075250325 free_energy=-54314.337075250325 stress="1.1443984508514404 -0.3247544765472412 0.2517107427120209 -0.3247544765472412 0.631412148475647 -0.48996272683143616 0.2517107427120209 -0.48996272683143616 0.6962535381317139" pbc="F F F"
C        1.23180491       0.73861673       1.55400000       0.08040328      -0.18038663      -0.02578794
B        0.69134589       1.38801734       3.01682407      -0.00270068      -0.00126094       0.00386456
B       -1.00561701       0.89746102       3.10589810       0.00021404       0.00147122      -0.00102894
B       -1.05073909      -0.87135911       3.08849675       0.00146454      -0.00151102       0.00602242
B        0.24387601      -0.02396542       3.98454817       0.00012935      -0.00413589       0.00088320
B        1.69892274      -0.06334155       2.96718532      -0.00137705      -0.00149336       0.00074143
C        1.22427092      -0.85557624       1.56400000      -0.60798484       0.44472778      -0.20177932
B       -0.31988477       1.41178994       1.55746579      -0.00131406      -0.00194391       0.00033914
B       -1.43603782       0.02175611       1.58965943      -0.00101463       0.00504474       0.00575842
B       -0.38131021      -1.42143144       1.52048315       0.00197746      -0.00366214       0.00074563
B        0.60972664      -1.45798592       3.01215334       0.00180447      -0.00131772      -0.00371814
C        1.14300000       0.92400000      -1.55300000      -0.41485402      -0.01734909       0.10031857
B        1.63224516       0.20444417      -2.99580755      -0.00250873      -0.00259636      -0.00390222
B        0.68817844      -1.28760932      -3.08155358       0.00023479       0.00014071       0.00006505
B       -1.02485189      -0.84709155      -3.10832626      -0.00197932       0.00265563      -0.00634729
B        0.16575029       0.15759879      -3.98677667      -0.00495956       0.00126931      -0.00122018
B        0.51304812       1.57183854      -2.97295247      -0.00340529      -0.00032837       0.00015732
C       -0.40000000       1.32300000      -1.56800000       0.09515085      -0.08751195       0.14063852
B        1.33484700      -0.74838946      -1.52357154      -0.00205862      -0.00099860       0.00097170
B       -0.30403298      -1.44220364      -1.58553470       0.00450088      -0.00181938      -0.00517622
B       -1.40928531      -0.04345116      -1.55613340      -0.00331175       0.00198303      -0.00359717
B       -1.12682992       0.91021473      -3.03995929      -0.00031217       0.00359800       0.00272902
Co       0.00000000       0.00000000       0.00000000       0.88149238      -0.13987961      -0.00935410
H        2.07935526       1.20792069       1.08037244       0.00227755      -0.00004979      -0.00449439
H        1.18074287       2.39327500       3.40673627      -0.00150459       0.00005204      -0.00088071
H       -1.80166461       1.56756778       3.67274147      -0.00219266      -0.00369280      -0.00034472
H       -1.87962599      -1.50349032       3.65108918      -0.00247826      -0.00553712      -0.00018244
H        0.33436301      -0.03242966       5.16687433      -0.00087216      -0.00039537       0.00067141
H        2.83968103      -0.08740115       3.27709272      -0.00172784       0.00128138      -0.00135300
H        2.02625297      -1.36410662       1.06039712       0.00441047      -0.00029274      -0.00401713
H       -0.48849513       2.50434934       1.11439267      -0.00141429      -0.00447700       0.00299669
H       -2.57400813       0.04898773       1.25772367       0.00086893      -0.00498357      -0.00073349
H       -0.62832207      -2.49855646       1.10183305       0.00350637      -0.00619553      -0.00222905
H        1.02263983      -2.49389420       3.40784869       0.00106181       0.00165873      -0.00109259
H        1.81131181       1.61373636      -1.06406346       0.00074908       0.00186814       0.00498340
H        2.74094848       0.38774075      -3.36912577      -0.00064209      -0.00176782       0.00087139
H        1.12534955      -2.24633289      -3.62357385      -0.00469691      -0.00095924      -0.00016356
H       -1.84709641      -1.47481719      -3.68523395      -0.00664320      -0.00003519      -0.00028554
H        0.20311673       0.23877180      -5.16920091      -0.00108983      -0.00006331      -0.00062839
H        0.79158563       2.67886852      -3.28054068       0.00083458      -0.00209568       0.00183984
H       -0.67860654       2.25077213      -1.09839608       0.00139101       0.00286521       0.00268564
H        2.32494944      -1.21743035      -1.05846413      -0.00367622      -0.00164627      -0.00271776
H       -0.58954762      -2.54125249      -1.24690238      -0.00521537       0.00280900      -0.00002550
H       -2.52054292       0.02937000      -1.15915962      -0.00399853       0.00564890       0.00214216
H       -1.99420284       1.60132086      -3.45221895       0.00146058       0.00131238       0.00163446
