45
Properties=species:S:1:pos:R:3:forces:R:3 charge=-1 spin=1 energy=-54314.48200132149 free_energy=-54314.48200132149 stress="-0.25372883677482605 -0.07094349712133408 -0.267532616853714 -0.07094349712133408 0.0006632383447140455 0.3453805148601532 -0.267532616853714 0.3453805148601532 2.111851930618286" pbc="F F F"
C        0.48724874       1.37461735       1.51715759       0.00219832      -0.01258694      -0.00872107
B       -0.29849206       1.55282486       3.00323709      -0.00748239      -0.00498094      -0.01714573
B       -1.29513838       0.09891150       3.14066980       0.00096942      -0.00273404      -0.01450306
B       -0.21170377      -1.30267972       3.11658903       0.01057002      -0.00377573      -0.02433397
B        0.28151468       0.18794968       3.97271859       0.00196082      -0.00329241      -0.01408134
B        1.39601721       1.06132802       2.90543477       0.00568885       0.00727984       0.00353502
C        1.45556071       0.13245007       1.49202692       0.00622696      -0.01524200       0.00424284
B       -1.13651125       0.90602117       1.56757187      -0.01614429       0.00207578      -0.02681999
B       -1.10727612      -0.86605057       1.63600000      -0.18554397      -0.12903929      -0.26375046
B        0.60334586      -1.33182543       1.51774586      -0.01165936      -0.00595719      -0.01841161
B        1.43851850      -0.70445057       2.97000017       0.00910604      -0.00002044      -0.01616164
C        1.03349533       0.99860065      -1.52390718      -0.01546907      -0.00152280       0.00101652
B        1.54847898       0.34630486      -2.99447170      -0.00574808      -0.00956063       0.01330357
B        0.68195527      -1.19039743      -3.11621012      -0.00435002      -0.00135084       0.01658293
B       -1.05311515      -0.83352478      -3.10725425      -0.00976963       0.00452777       0.02545854
B        0.07461791       0.25364557      -3.97220836      -0.00868568      -0.00220877       0.01294102
B        0.36262975       1.65444426      -2.92492996      -0.00051245       0.00794591      -0.01058967
C       -0.50979695       1.32375440      -1.51156964      -0.01781264      -0.00213914      -0.01071828
B        1.32388844      -0.66920930      -1.54587733       0.00888397      -0.00769071       0.02872300
B       -0.27500000      -1.43300000      -1.61500000      -0.06867338       0.01301177       0.28757805
B       -1.44755004      -0.09242923      -1.52065298      -0.00065052      -0.01380590       0.01877756
B       -1.24203437       0.91431676      -2.98665872      -0.00804629       0.00468669       0.01428393
Co       0.00000000       0.00000000       0.00000000       0.35557073       0.19368723       0.00798097
H        0.82829237       2.27176985       1.02185072      -0.01462248      -0.01429858      -0.01367281
H       -0.54268112       2.64769229       3.38358177      -0.00550599      -0.00842860      -0.00002043
H       -2.32003985       0.12126026       3.73490335       0.00623987      -0.00741063      -0.00796918
H       -0.44052313      -2.30727265       3.70211867       0.01253970       0.00611148      -0.01518768
H        0.39647402       0.25695628       5.15137863       0.00624126      -0.00360305      -0.01352146
H        2.31472127       1.75813232       3.16573280       0.00985460       0.01447426      -0.00213688
H        2.39629612       0.23800818       0.97471902      -0.00802626      -0.01402165      -0.00357837
H       -1.97735211       1.62352275       1.13141603      -0.00566194       0.00830093      -0.03297798
H       -2.01249919      -1.56562325       1.31813006       0.00134480       0.00824243      -0.02265940
H        1.09004512      -2.31771791       1.07986659      -0.01052491      -0.00500802      -0.01973411
H        2.43359191      -1.23069868       3.33498193       0.00899518       0.00398964      -0.00989943
H        1.68785086       1.70491539      -1.03438342      -0.01223813      -0.01821198       0.00700406
H        2.64314015       0.60152990      -3.36874924      -0.01083568      -0.00744573      -0.00356424
H        1.15993684      -2.10731967      -3.69504339      -0.01164619       0.00272514       0.00770464
H       -1.85163424      -1.48501497      -3.69233881      -0.00175234       0.00985708       0.01825095
H        0.09485982       0.37070861      -5.15252428      -0.01242376       0.00065423       0.01307969
H        0.58803017       2.78166218      -3.20042209       0.00174479       0.01608901      -0.00276596
H       -0.83126020       2.22514491      -1.01315542      -0.00940982      -0.01597607      -0.00155847
H        2.33502949      -1.10246895      -1.09714072       0.01033644       0.00697783       0.03453519
H       -0.50765960      -2.54630773      -1.27656902       0.01001651       0.00579727       0.02592343
H       -2.55037779      -0.08121424      -1.09017399       0.00032619      -0.01096186       0.02329906
H       -2.14853845       1.57147838      -3.36970973      -0.00561934       0.00483964       0.01026206
