45
Properties=species:S:1:pos:R:3:forces:R:3 charge=-1 spin=1 energy=-54314.24153424996 free_energy=-54314.24153424996 stress="0.02587738260626793 -0.13230396807193756 0.12389478832483292 -0.13230396807193756 -0.1847905069589615 0.07690209150314331 0.12389478832483292 0.07690209150314331 0.022413671016693115" pbc="F F F"
C       -0.57511516       1.31945838       1.52740810      -0.01707776       0.01974390       0.01125561
B       -1.25599499       0.89078040       3.00931139       0.00792793      -0.00429649      -0.00545334
B       -0.94138478      -0.84379636       3.14444328       0.01057506      -0.00338981       0.00334817
B        0.81051154      -1.07669209       3.12323376       0.01051159       0.00192985       0.00543241
B        0.11396743       0.32996417       3.97957591       0.00060401      -0.00846600       0.01331578
B        0.29289462       1.73508956       2.91560779      -0.00709041       0.00284668      -0.00205131
C        0.98401051       1.10873664       1.50566752      -0.02463835       0.00355677       0.00913864
B       -1.40860738      -0.16040779       1.57602616      -0.02569777      -0.02272954      -0.03356560
B       -0.12665897      -1.40002197       1.63600000      -0.23591970      -0.12592097      -0.24700053
B        1.40132056      -0.52549702       1.52793662       0.00022913       0.02820611       0.02705446
B        1.56355521       0.50775692       2.97912860      -0.00036111       0.00129435       0.00073388
C        0.96675943       1.03151852      -1.56038628       0.02001583       0.01276627      -0.01240878
B        1.49008508       0.37990713      -3.02446007      -0.01292855       0.00352512      -0.00325885
B        0.66615558      -1.17953649      -3.12483366      -0.01502969      -0.00029784      -0.01097240
B       -1.07465826      -0.87118259      -3.11290049      -0.01285616       0.00262792      -0.00180421
B        0.01624369       0.23851320      -3.99461875      -0.01266940      -0.00672525      -0.01286103
B        0.27128248       1.65711098      -2.96506732      -0.00211334      -0.00020161       0.00380851
C       -0.58239185       1.30500175      -1.54673938       0.02365678      -0.00811478      -0.01159223
B        1.31024450      -0.62943239      -1.56369340       0.02141364      -0.02902424       0.02359356
B       -0.27500000      -1.43300000      -1.61500000       0.06474899      -0.04544786       0.31067362
B       -1.47350475      -0.13073728      -1.53541122       0.01116851       0.01384859      -0.01610100
B       -1.31251523       0.87082902      -3.01021574      -0.00519846      -0.00375860       0.00648187
Co       0.00000000       0.00000000       0.00000000       0.21529007       0.22972371      -0.05103182
H       -0.95902251       2.20093446       1.03946020      -0.02237057      -0.01719107       0.01503421
H       -2.20423801       1.49262828       3.38424059       0.01174079      -0.01018793       0.01926753
H       -1.68833819      -1.54878933       3.73370629       0.01170283      -0.00509369       0.01237886
H        1.35826159      -1.95258149       3.70208592       0.00625104      -0.00184662       0.00278697
H        0.14541743       0.46014993       5.15695392       0.01020781      -0.00651747       0.02210240
H        0.45523685       2.88001871       3.16472594       0.00353056      -0.00435336       0.01786617
H        1.58551047       1.85087889       1.00676581      -0.00844037       0.01903868       0.00837044
H       -2.52025979      -0.23207990       1.17591388       0.00623268      -0.02204672       0.02010995
H       -0.28196672      -2.53431313       1.32535482       0.00652379       0.00395510       0.00376150
H        2.44099328      -0.89525740       1.10770318       0.02023459       0.02410332      -0.01919197
H        2.64523038       0.83648966       3.33114170      -0.00629438      -0.00608792       0.00725194
H        1.60178839       1.76419721      -1.08897688       0.00562423      -0.01852493      -0.01395533
H        2.57730430       0.65574897      -3.40380607      -0.01399896      -0.00235388      -0.01522717
H        1.16556029      -2.09060676      -3.69273021      -0.00546332      -0.00174232      -0.01002112
H       -1.86351695      -1.55015268      -3.67766404      -0.00132383      -0.00642373      -0.00585597
H        0.02568250       0.34441143      -5.17487998      -0.00748473      -0.00612900      -0.02135539
H        0.46501915       2.79114771      -3.24087211      -0.01123048      -0.00595298      -0.01837125
H       -0.93052740       2.20838726      -1.07283292       0.00659284       0.01072180      -0.01091007
H        2.34811284      -1.02454303      -1.15565904      -0.01242942      -0.01774979      -0.00999497
H       -0.47056678      -2.55190568      -1.27407889      -0.00388094       0.00511534      -0.00430343
H       -2.57678419      -0.15630895      -1.11337730      -0.01126492       0.02159439       0.00626835
H       -2.24283546       1.50389619      -3.37862656       0.00097995      -0.01402341      -0.01274678
