45
Properties=species:S:1:pos:R:3:forces:R:3 charge=-1 spin=1 energy=-54314.56092931527 free_energy=-54314.56092931527 stress="0.7639954090118408 0.6319071650505066 -1.1062207221984863 0.6319071650505066 0.8815659284591675 -1.3520934581756592 -1.1062207221984863 -1.3520934581756592 2.058641195297241" pbc="F F F"
C        0.22339127      -1.41880032       1.55400000       0.01310016       0.39366531      -0.12767620
B        1.01156140      -1.11779789       3.02224387       0.00330775      -0.00173301      -0.00031164
B        1.15307273       0.64587017       3.11432819       0.00044529      -0.00299206       0.00525380
B       -0.48317892       1.32220214       3.09259779      -0.00005920       0.00198774      -0.00249991
B       -0.15618089      -0.19347321       3.98469657      -0.00408300      -0.00216404       0.00058032
B       -0.70096529      -1.54507372       2.96347232      -0.00133151       0.00213138       0.00342790
C       -1.25189644      -0.81461973       1.56400000       0.29696843       0.18186183      -0.57671493
B        1.40550915      -0.18779011       1.56157420      -0.00784141      -0.00248821       0.00068984
B        0.50021911       1.34226162       1.60147359      -0.00237143      -0.00120439      -0.00447643
B       -1.21656260       0.88057608       1.52803069      -0.00742260      -0.00017262      -0.00304662
B       -1.62142404      -0.02491468       3.00368526       0.00179749      -0.00181134      -0.00113401
C        1.14300000       0.92400000      -1.55300000      -0.39244205      -0.39274582       0.43347272
B        1.60760923       0.16245901      -2.97947604       0.00402840       0.00029641       0.00026586
B        0.63738246      -1.31506970      -3.05844014       0.00341649       0.00202739      -0.00615830
B       -1.06944515      -0.84685385      -3.10172661      -0.00155296      -0.00129361       0.00134376
B        0.14171915       0.13226561      -3.97661886      -0.00171453       0.00364178      -0.00105267
B        0.51253547       1.55272916      -2.97296496      -0.00169701      -0.00101149      -0.00182349
C       -0.40000000       1.32300000      -1.56800000      -0.00656132       0.10733495       0.21360683
B        1.29939422      -0.77137150      -1.49273469      -0.00593809       0.00567688      -0.00037235
B       -0.34946802      -1.43065606      -1.57343625      -0.00050804       0.00512736       0.00539384
B       -1.43187313      -0.02143159      -1.56861627      -0.00508171       0.00359258       0.00565883
B       -1.14068731       0.91782883      -3.04015489       0.00288070       0.00117697       0.00072920
Co       0.00000000       0.00000000       0.00000000       0.09112107      -0.28790563       0.06029695
H        0.36189875      -2.36200106       1.05319000       0.00114778      -0.00834296      -0.00309734
H        1.77921225      -1.92042454       3.42954551       0.00229689      -0.00209230       0.00307810
H        2.06266636       1.14612125       3.68563595       0.00360601       0.00227471       0.00104272
H       -0.78144542       2.32361498       3.65249388      -0.00015542       0.00342236       0.00078779
H       -0.20149399      -0.27690342       5.16684752       0.00201455       0.00128233       0.00097862
H       -1.13868836      -2.59654751       3.27807200       0.00030334       0.00272129       0.00021655
H       -2.00987355      -1.37450152       1.04119208      -0.00509493      -0.00356496      -0.00535933
H        2.49759433      -0.39127205       1.14831758       0.00258040      -0.00199753       0.00197733
H        0.92962701       2.38839710       1.22150426       0.00020711       0.00237976      -0.00003176
H       -2.11599663       1.48612197       1.04483794       0.00070604      -0.00084601      -0.00060793
H       -2.73983202      -0.05212166       3.39080905       0.00491072       0.00069787      -0.00039350
H        1.81175678       1.59065035      -1.03549177       0.00561788       0.00470725       0.00227814
H        2.71638771       0.31441085      -3.36267280       0.00412005      -0.00027244      -0.00317837
H        1.06451129      -2.28200724      -3.59361814       0.00186358      -0.00516837      -0.00161347
H       -1.90237816      -1.46583839      -3.67448853      -0.00348710      -0.00361194      -0.00171300
H        0.18680492       0.20408195      -5.15949230       0.00080841      -0.00252737      -0.00123233
H        0.80545592       2.65022889      -3.29828961      -0.00161021      -0.00321132      -0.00005902
H       -0.66824082       2.25174518      -1.09054280      -0.00252956       0.00513309       0.00451848
H        2.26880118      -1.27582854      -1.03383265       0.00279380       0.00001449      -0.00230082
H       -0.65778911      -2.51213689      -1.17573362      -0.00097104      -0.00084179      -0.00141909
H       -2.52790398       0.06747622      -1.12239250       0.00033374       0.00006307       0.00050541
H       -1.99192705       1.62515127      -3.45997788       0.00207683      -0.00321767       0.00016950
