45
Properties=species:S:1:pos:R:3:forces:R:3 charge=-1 spin=1 energy=-242.30474853515625 free_energy=-242.30474853515625 stress="-7.478923436110563e-08 1.999111276518306e-08 -4.600059000381407e-08 1.999111276518306e-08 -8.479562296770382e-08 9.470553408164051e-08 -4.600059000381407e-08 9.470553408164051e-08 -1.7230061644113448e-07" pbc="F F F"
C        1.32159024      -0.56240308       1.55400000       0.20957538      -0.03061759       0.31946546
B        1.49955855       0.24332399       3.03455457      -0.00081737       0.00135026      -0.00023708
B        0.09897648       1.32200425       3.08894028      -0.00029562      -0.00125414       0.00003237
B       -1.35940996       0.29461292       3.06015522       0.00290579       0.00113430       0.00483775
B        0.08951763      -0.23793658       3.97610816      -0.00124804      -0.00059133      -0.00119975
B        0.92413570      -1.41270350       3.02638822      -0.00027259      -0.00016792       0.00094086
C        0.02743267      -1.49335108       1.56400000      -0.07976663      -0.06226152      -0.00558972
B        0.94725701       1.07923519       1.55367604      -0.00061193       0.00279874       0.00277683
B       -0.84072378       1.15484776       1.59294996       0.00052190       0.00286409       0.00257869
B       -1.36563674      -0.56155483       1.49203059       0.00175732       0.00075844      -0.00672431
B       -0.82301700      -1.39133127       3.01439545      -0.00222229       0.00335202       0.00375313
C        1.14300000       0.92400000      -1.55300000       0.11379729       0.03057772      -0.17818838
B        1.61856157       0.20235340      -3.00321146      -0.00001920      -0.00364232      -0.00031224
B        0.67526493      -1.29224497      -3.05169966      -0.00105523       0.00158499       0.00049423
B       -1.04845500      -0.83608048      -3.08171403       0.00419471       0.00158736      -0.00534987
B        0.15053164       0.15708415      -3.97422215      -0.00214170      -0.00016914       0.00184598
B        0.50830833       1.55590598      -3.02926336      -0.00234623       0.00073940      -0.00027007
C       -0.40000000       1.32300000      -1.56800000      -0.17303628       0.29210755      -0.20479554
B        1.34023700      -0.74129779      -1.50571247       0.00185028      -0.00462504      -0.00435308
B       -0.30468620      -1.43816766      -1.58357441       0.00057297      -0.00390136      -0.00434007
B       -1.40611540      -0.02140565      -1.53893506       0.00296000      -0.00064370       0.00865914
B       -1.12603319       0.93090702      -3.04801926      -0.00083451      -0.00430710      -0.00502358
Co       0.00000000       0.00000000       0.00000000      -0.06884105      -0.22413906       0.06607816
H        2.22712767      -0.93833332       1.07090475      -0.00388296       0.00186905      -0.00137620
H        2.59483465       0.47782233       3.44216822       0.00088611      -0.00131995       0.00142305
H        0.13667097       2.36308606       3.67109289       0.00183812       0.00012724      -0.00070878
H       -2.37299580       0.59645992       3.61401629      -0.00074247       0.00254213      -0.00072186
H        0.09202247      -0.26084472       5.16631013      -0.00216749       0.00017161      -0.00178953
H        1.58631914      -2.34734571       3.33862876      -0.00114508      -0.00230420       0.00179709
H        0.06950058      -2.44874099       1.03418551       0.00069535      -0.00355610       0.00247742
H        1.73027604       1.87485262       1.12303211       0.00276426      -0.00093310       0.00031720
H       -1.48185042       2.07376996       1.17086494       0.00294551       0.00117420      -0.00302078
H       -2.37028372      -1.01868170       1.03456488      -0.00154693      -0.00008371      -0.00174519
H       -1.43689869      -2.33734759       3.40090489      -0.00188921       0.00044543      -0.00159006
H        1.84717963       1.59135511      -1.04895865      -0.00190888      -0.00113804       0.00074009
H        2.73646480       0.34745232      -3.38981260       0.00069508       0.00154029      -0.00160252
H        1.08731270      -2.26469330      -3.60693198       0.00123832       0.00132255       0.00177919
H       -1.87515894      -1.47719372      -3.65678819       0.00133091      -0.00266918       0.00272585
H        0.17403285       0.16640171      -5.16437543      -0.00261947      -0.00113249       0.00305696
H        0.80336331       2.66178596      -3.34458996      -0.00130203       0.00164554      -0.00221823
H       -0.70631388       2.25263752      -1.07779972      -0.00097280      -0.00104530       0.00449613
H        2.33467707      -1.21266243      -1.03945434       0.00385513       0.00226077      -0.00113277
H       -0.58948861      -2.51318846      -1.14220793       0.00123183       0.00028522      -0.00145883
H       -2.52232045       0.06385065      -1.11962971      -0.00200912      -0.00047161       0.00231085
H       -2.01306404       1.61236566      -3.46020660      -0.00192113      -0.00126497       0.00116311
