45
Properties=species:S:1:pos:R:3:forces:R:3 charge=-1 spin=1 energy=-242.27410888671875 free_energy=-242.27410888671875 stress="-7.590323747308503e-08 1.217019285348897e-08 -5.6853640018061924e-08 1.217019285348897e-08 -9.047878535284326e-08 8.458266620436916e-08 -5.6853640018061924e-08 8.458266620436916e-08 -1.7443240096781665e-07" pbc="F F F"
C        1.43603704      -0.02637464       1.55400000       0.20800807       0.04540832       0.31139237
B        1.29793284       0.79011015       3.02956865       0.00427482      -0.00154296      -0.00647673
B       -0.40282680       1.26541118       3.08243901      -0.00181682       0.00381744      -0.00295992
B       -1.37183738      -0.23428129       3.05541535      -0.00179186      -0.00245155      -0.00096317
B        0.16755860      -0.18496883       3.97211562       0.00158282       0.00004355       0.00015892
B        1.38251338      -0.96316904       3.02606876       0.00056278       0.00019712      -0.00328780
C        0.58485429      -1.37433455       1.56400000      -0.02827698      -0.08866256       0.02456319
B        0.47422584       1.35795805       1.55081712       0.00286077      -0.00121474      -0.00622082
B       -1.21320197       0.75569110       1.58638059       0.00043908      -0.00234184      -0.00039175
B       -1.05369706      -1.03440460       1.48119238      -0.00090311      -0.00188783       0.00508519
B       -0.24685012      -1.59674862       3.01271339       0.00205527      -0.00098671      -0.00264594
C        1.14300000       0.92400000      -1.55300000       0.09800857       0.02526465      -0.17119026
B        1.61861279       0.19936037      -2.99804421       0.00098753       0.00383031       0.00684264
B        0.67660318      -1.29401671      -3.04425319       0.00195608      -0.00396252       0.00285653
B       -1.04897741      -0.83848433      -3.07506752      -0.00351438       0.00027925       0.00041790
B        0.14662721       0.15220384      -3.96902444       0.00149679       0.00036503      -0.00049850
B        0.50391354       1.55348297      -3.02773009       0.00136821      -0.00070056       0.00284093
C       -0.40000000       1.32300000      -1.56800000      -0.15350527       0.31004477      -0.22630097
B        1.34257625      -0.74359932      -1.50344771       0.00122145       0.00539512       0.00660023
B       -0.30605937      -1.43964425      -1.57669829      -0.00066201       0.00348580       0.00046690
B       -1.40597974      -0.01861090      -1.52543999      -0.00265518       0.00160389      -0.00547497
B       -1.13034766       0.92591054      -3.04497916       0.00012599       0.00195336       0.00208101
Co       0.00000000       0.00000000       0.00000000      -0.09254266      -0.28848636       0.07179441
H        2.41788836      -0.03735230       1.07091741      -0.00047739      -0.00182294      -0.00254868
H        2.22721941       1.41389133       3.44030291      -0.00332923       0.00239968       0.00020927
H       -0.75568023       2.24442274       3.66651161      -0.00385702       0.00403993      -0.00113979
H       -2.42654738      -0.32975448       3.60677902      -0.00287916      -0.00117943      -0.00018302
H        0.17747291      -0.20457843       5.16201434      -0.00181749       0.00214087       0.00286515
H        2.34493650      -1.58340062       3.34043469      -0.00112057       0.00235347       0.00240082
H        0.98772065      -2.24613719       1.04065563      -0.00180377       0.00066163      -0.00177538
H        0.89426786       2.37859474       1.08542096      -0.00541891      -0.00247172       0.00569222
H       -2.16006901       1.36007023       1.17436618      -0.00358509       0.00041026      -0.00279637
H       -1.80620746      -1.84139853       1.02206236      -0.00018336      -0.00069716      -0.00012660
H       -0.46654873      -2.70327395       3.39792205       0.00063777       0.00001329       0.00157504
H        1.84649251       1.59439607      -1.04961644       0.00447711       0.00270863      -0.00586732
H        2.73469597       0.34886067      -3.38928851      -0.00252298      -0.00391147       0.00075144
H        1.09031847      -2.26472075      -3.60123819      -0.00109366      -0.00539771      -0.00020603
H       -1.87412234      -1.48496419      -3.64639537      -0.00446789      -0.00132363      -0.00033173
H        0.16915988       0.16024706      -5.15877469      -0.00005000      -0.00258024      -0.00358059
H        0.79647586       2.65931488      -3.34602554       0.00052121      -0.00298408      -0.00182876
H       -0.70202454       2.25495774      -1.07878166      -0.00324132      -0.00079143      -0.00058959
H        2.32185612      -1.21278495      -1.00097560      -0.00595830       0.00050690      -0.00355589
H       -0.60070011      -2.51344783      -1.14107652      -0.00240391      -0.00201157       0.00338339
H       -2.52076073       0.07648274      -1.10287249      -0.00021931      -0.00032792       0.00004128
H       -2.02087063       1.60316519      -3.45638455      -0.00048657       0.00081380      -0.00107832
