45
Properties=species:S:1:pos:R:3:forces:R:3 charge=-1 spin=1 energy=-54314.26689817208 free_energy=-54314.26689817208 stress="-0.0824284553527832 -0.13272903859615326 0.2470400035381317 -0.13272903859615326 -0.12895210087299347 0.02953466773033142 0.2470400035381317 0.02953466773033142 0.19722683727741241" pbc="F F F"
C       -0.31779836       1.40344142       1.52737151       0.01465208       0.01744391      -0.00196159
B       -1.06699802       1.11040197       3.00934381       0.00974041      -0.00144546      -0.00107657
B       -1.08292428      -0.65245473       3.14438286       0.00280415       0.00153818       0.00311324
B        0.59434620      -1.20952323       3.12315724       0.00128537       0.00127307       0.00384009
B        0.17383391       0.30289991       3.97936664      -0.00443512      -0.00935381       0.01461027
B        0.61293270       1.64943418       2.91567436      -0.00704992       0.00249109      -0.00467123
C        1.17437643       0.90465074       1.50552983       0.00577034       0.00432299       0.00137234
B       -1.41298478       0.10628307       1.57640238      -0.03846688       0.01451137      -0.01696628
B       -0.38675345      -1.35149020       1.63600000      -0.26919165      -0.08471389      -0.23487622
B        1.27795138      -0.77885389       1.52778676       0.00383373      -0.00411531      -0.00353862
B        1.63107307       0.20578527       2.97924615      -0.00612899      -0.00073039      -0.01095232
C        0.96669702       1.03110927      -1.56029024      -0.00724996       0.02214559      -0.00258854
B        1.49032887       0.37977568      -3.02432712      -0.01496578       0.01027293      -0.01095319
B        0.66632191      -1.17958724      -3.12464420      -0.00725526       0.00299355      -0.01207098
B       -1.07455119      -0.87121073      -3.11289202      -0.00585887       0.00018272       0.00105846
B        0.01641853       0.23863323      -3.99442020      -0.01183770      -0.00847991      -0.01380221
B        0.27132281       1.65713951      -2.96517059      -0.00293977      -0.00206191       0.00726173
C       -0.58244854       1.30503403      -1.54664772      -0.00427120       0.00234902       0.00428604
B        1.30946010      -0.62919123      -1.56381979       0.04798850      -0.00287313      -0.00286961
B       -0.27500000      -1.43300000      -1.61500000       0.07230852      -0.05658290       0.29790747
B       -1.47352214      -0.13068132      -1.53548473      -0.00135887      -0.01137297       0.01910794
B       -1.31247378       0.87093843      -3.01046231      -0.00262586      -0.00876423       0.02019129
Co       0.00000000       0.00000000       0.00000000       0.25207865       0.19191211      -0.05155296
H       -0.52949109       2.34188945       1.03924229      -0.00479664      -0.00801763       0.00406998
H       -1.88559203       1.87935430       3.38393256       0.00533634      -0.00824845       0.02211331
H       -1.94875129      -1.20487182       3.73349062       0.00655611      -0.00848602       0.01582480
H        0.96824699      -2.17246231       3.70205561       0.00514573      -0.00307168       0.00174429
H        0.22893947       0.42486168       5.15657270       0.00842443      -0.00756129       0.02661992
H        0.98679785       2.74378304       3.16447299       0.00254608      -0.00619529       0.01741677
H        1.90418705       1.52094790       1.00676884       0.00833642      -0.00310007      -0.01189754
H       -2.51938395       0.24441180       1.17569469       0.01273728      -0.00182733       0.00068651
H       -0.75191039      -2.43666877       1.32530694       0.00189312       0.00491309      -0.00037415
H        2.22977626      -1.33686857       1.10791617       0.01269428      -0.00123319      -0.02097804
H        2.75527211       0.32609837       3.33104327      -0.01181061      -0.00706119       0.00679184
H        1.60196868       1.76439260      -1.08874781      -0.01287109      -0.00335020      -0.00515674
H        2.57743752       0.65577669      -3.40357234      -0.00813022      -0.00154826      -0.01677155
H        1.16559547      -2.09053957      -3.69255656      -0.00178137      -0.00509320      -0.01286460
H       -1.86350771      -1.55005181      -3.67757894      -0.00020673      -0.00710547      -0.00573882
H        0.02577239       0.34449654      -5.17451249      -0.00588514      -0.00591985      -0.02566036
H        0.46517762       2.79124549      -3.24061459      -0.01134124      -0.00739223      -0.01765263
H       -0.93039664       2.20833887      -1.07283251      -0.01531485       0.00045964       0.01184905
H        2.34842870      -1.02461618      -1.15552612      -0.01261390       0.01014632       0.00445897
H       -0.47056943      -2.55200055      -1.27402845       0.00159221       0.00531485       0.00044658
H       -2.57663401      -0.15640523      -1.11346397      -0.01128116       0.00113976       0.01369326
H       -2.24288182       1.50413458      -3.37843357       0.00394524      -0.01770455      -0.01348931
