45
Properties=species:S:1:pos:R:3:forces:R:3 charge=-1 spin=1 energy=-54314.51890088814 free_energy=-54314.51890088814 stress="0.7482431530952454 0.5299566388130188 -0.65092533826828 0.5299566388130188 1.0676813125610352 -1.3450077772140503 -0.65092533826828 -1.3450077772140503 1.6663460731506348" pbc="F F F"
C        0.75574342      -1.22137213       1.55400000      -0.16906160       0.19499083      -0.15133277
B        1.38074054      -0.64903424       3.01967464      -0.00082867       0.00076002       0.00253148
B        0.83870570       1.03512093       3.11696892       0.01841791      -0.00943004      -0.00380930
B       -0.93132043       1.03162524       3.10028797       0.01407952      -0.00525098       0.01324572
B       -0.04674823      -0.24423169       3.98820109      -0.00718468       0.00086043      -0.00054169
B       -0.04041140      -1.69890192       2.96350371      -0.00425705       0.00351613       0.00367247
C       -0.83839935      -1.23609730       1.56400000       0.24024896       0.43401670      -0.42876533
B        1.37942705       0.36142502       1.56155319      -0.02304455      -0.03507977      -0.00712072
B       -0.04087952       1.43184756       1.60709515       0.01686244       0.01979522       0.00311443
B       -1.45172497       0.34714601       1.53738785      -0.03895254       0.02033835       0.01461624
B       -1.46849095      -0.64757252       3.01221904       0.00773793      -0.01171739      -0.00408107
C        1.14300000       0.92400000      -1.55300000      -0.40547225      -0.29817483       0.37086174
B        1.61531310       0.16054280      -2.98050553       0.00090496       0.00180057       0.00069126
B        0.64987286      -1.32154028      -3.05482441       0.02399821       0.00580982       0.00513482
B       -1.05846397      -0.85725005      -3.09615891       0.01988481       0.00024832      -0.01901560
B        0.14912300       0.12135016      -3.97611487      -0.00050599       0.00524628      -0.00195254
B        0.51445703       1.54660467      -2.97616701       0.00084252       0.00000165      -0.00292378
C       -0.40000000       1.32300000      -1.56800000      -0.01580018      -0.00385970       0.17497011
B        1.30835103      -0.76558209      -1.49359344      -0.01320079       0.04137002       0.00674407
B       -0.33916697      -1.43434151      -1.56989954       0.01737024      -0.02148421       0.00294024
B       -1.42796546      -0.02710309      -1.56746542      -0.04071087      -0.01522088      -0.01348033
B       -1.13413416       0.90655904      -3.04217932       0.01038148       0.01157724       0.00140140
Co       0.00000000       0.00000000       0.00000000       0.16963102      -0.33801413       0.05935868
H        1.24687772      -2.03825177       1.05247894       0.00023164      -0.00071512      -0.00832838
H        2.39743373      -1.10162230       3.42173292       0.00269825      -0.00422589      -0.00869745
H        1.48708450       1.84647347       3.68761548       0.00875451      -0.00137519      -0.00200911
H       -1.59187914       1.83908735       3.66311762       0.00811317       0.00497541       0.00114070
H       -0.05591104      -0.34014819       5.17031063       0.01106059       0.00040087      -0.00106357
H       -0.03974595      -2.83874654       3.27483436       0.00325424       0.00392411      -0.00175478
H       -1.32440571      -2.04478925       1.04482708       0.00122833      -0.00160301      -0.00207553
H        2.46007364       0.57480223       1.11616446       0.02351940       0.00807904      -0.00323199
H       -0.04488301       2.56634407       1.23814359       0.00509617      -0.01157367      -0.00020979
H       -2.52936556       0.57070875       1.10169298       0.01854371      -0.00325805      -0.01405071
H       -2.49119732      -1.09876765       3.40077727       0.00444276       0.00940458       0.00799184
H        1.81396470       1.59216161      -1.04046748      -0.00134724       0.00232736       0.00830978
H        2.72321896       0.31621382      -3.36568111       0.00321286       0.00872417       0.00923571
H        1.07576280      -2.29188491      -3.58520522       0.01255283       0.00294155      -0.00286945
H       -1.89342621      -1.47770270      -3.66423391       0.00801064      -0.00609415      -0.00759993
H        0.18905949       0.18924343      -5.15931618       0.01347244       0.00223223      -0.00210610
H        0.80323741       2.64369915      -3.30580469       0.00306346      -0.00054403       0.00361252
H       -0.67046747       2.25343235      -1.09628230      -0.00048514       0.00254955       0.00129848
H        2.27737597      -1.24964276      -1.00602844       0.02282080      -0.01394531       0.00336023
H       -0.64027017      -2.51883520      -1.17476469       0.00767675       0.00489789      -0.00332996
H       -2.53565872       0.05612345      -1.15922159       0.02165172      -0.00312292       0.00772513
H       -1.98914146       1.60876257      -3.46140491       0.00108760      -0.00609880      -0.01160736
