45
Properties=species:S:1:pos:R:3:forces:R:3 charge=-1 spin=1 energy=-54314.535584466634 free_energy=-54314.535584466634 stress="0.6764186024665833 0.5060046911239624 -0.7561781406402588 0.5060046911239624 1.1119186878204346 -1.4149649143218994 -0.7561781406402588 -1.4149649143218994 1.8325846195220947" pbc="F F F"
C        0.69517741      -1.25683188       1.55400000      -0.14033461       0.17147879      -0.20702891
B        1.35001110      -0.71455768       3.01597516       0.00153464      -0.00339478       0.00372395
B        0.89703771       0.99464341       3.10992375       0.00328084      -0.00118335      -0.00202974
B       -0.87161729       1.08277719       3.09591365       0.00308566      -0.00128636       0.00406155
B       -0.05408372      -0.23490201       3.98459912       0.00428305       0.00159130       0.00159084
B       -0.12338131      -1.69060670       2.96418755      -0.00087171       0.00025297      -0.00054635
C       -0.89778149      -1.19366595       1.56400000       0.25864872       0.48027721      -0.43483403
B        1.39917861       0.29057646       1.55490460      -0.00256776      -0.00264121       0.00113808
B        0.03694602       1.43339707       1.60139669       0.00453474      -0.00001641      -0.00017006
B       -1.42988792       0.42288953       1.53527899      -0.00318229       0.00062867       0.00174669
B       -1.49612374      -0.56765654       3.01047991       0.00233825      -0.00036139       0.00183941
C        1.14300000       0.92400000      -1.55300000      -0.33961469      -0.19571118       0.49038783
B        1.62680173       0.16738587      -2.97484400       0.00145386       0.00444857      -0.00446744
B        0.67165978      -1.31886134      -3.05447393       0.00352034       0.00075254       0.00156026
B       -1.03891102      -0.86292486      -3.10415469       0.00390983       0.00106257      -0.00438587
B        0.16587355       0.12381700      -3.97683418       0.00263199      -0.00285478      -0.00085636
B        0.51846031       1.54940539      -2.97426563      -0.00085313       0.00052203      -0.00001406
C       -0.40000000       1.32300000      -1.56800000      -0.03121443      -0.09455251       0.11753482
B        1.31738959      -0.76102806      -1.48849548      -0.00114633       0.00174294      -0.00221795
B       -0.32418351      -1.43750417      -1.57325866       0.00540505      -0.00229204      -0.00066200
B       -1.42153855      -0.03643029      -1.57541674      -0.00279887      -0.00069509      -0.00232610
B       -1.12654273       0.90205966      -3.04666684       0.00374490       0.00095451      -0.00172580
Co       0.00000000       0.00000000       0.00000000       0.19110888      -0.35728523       0.03907144
H        1.14406129      -2.09706698       1.05066499      -0.00209701       0.00031266       0.00034792
H        2.34267335      -1.21878876       3.41604865       0.00456487      -0.00416160      -0.00052181
H        1.58809829       1.77238138       3.67759316       0.00264568      -0.00369967      -0.00061337
H       -1.48715619       1.92525580       3.65844452       0.00262333       0.00215570       0.00159630
H       -0.06409570      -0.32765832       5.16685375       0.00272977      -0.00084283       0.00124544
H       -0.17894125      -2.82783594       3.27958694       0.00186843       0.00050274      -0.00071199
H       -1.42288572      -1.97743133       1.04413960      -0.00041649       0.00126160       0.00177003
H        2.48978727       0.45282218       1.11058773       0.00046139      -0.00658026      -0.00101938
H        0.09090970       2.56377253       1.22436740       0.00393609      -0.00092211       0.00482280
H       -2.48856125       0.70053610       1.08435730      -0.00222249       0.00249905       0.00656816
H       -2.53911702      -0.96280915       3.40581839       0.00085780       0.00242683       0.00113873
H        1.80978689       1.59276902      -1.03482745      -0.00283714       0.00129764      -0.00049897
H        2.73628969       0.33267502      -3.35093142       0.00452698       0.00290664       0.00019276
H        1.10672515      -2.28528217      -3.58503783       0.00316839       0.00340510       0.00023527
H       -1.86617312      -1.48793221      -3.67876256       0.00254824      -0.00205517      -0.00131983
H        0.21372935       0.19339814      -5.15977017       0.00259271       0.00092513       0.00037404
H        0.80687365       2.64760331      -3.30046628       0.00141817      -0.00056636       0.00077538
H       -0.67304591       2.25205975      -1.09483618      -0.00077411      -0.00043539      -0.00213259
H        2.28639848      -1.24469778      -0.99881016       0.00423998       0.00574447      -0.00009978
H       -0.62219708      -2.52175015      -1.17520242       0.00439681      -0.00187459      -0.00542548
H       -2.52669992       0.03738549      -1.15887183      -0.00202094      -0.00120933      -0.00690074
H       -1.98284911       1.59772150      -3.47445005       0.00089281      -0.00252743      -0.00121331
