45
Properties=species:S:1:pos:R:3:forces:R:3 charge=-1 spin=1 energy=-242.25955200195312 free_energy=-242.25955200195312 stress="7.86910980821176e-09 1.6468737484842677e-08 -3.537568815659142e-08 1.6468737484842677e-08 5.966609961660652e-08 2.485977823596386e-08 -3.537568815659142e-08 2.485977823596386e-08 3.851009111599524e-08" pbc="F F F"
C        0.71978937       1.29608440       1.59806007       0.00038990       0.00714503      -0.00658423
B       -0.07140483       1.55431624       3.05107409      -0.00533533       0.01439568       0.00507081
B       -1.27826791       0.26640043       3.11321946      -0.01489544      -0.00198036       0.00463302
B       -0.40162229      -1.28722517       3.10532655      -0.00823895      -0.01098353       0.00302248
B        0.27119158       0.10867163       4.00312208      -0.00656510      -0.00531442       0.00881869
B        1.52068880       0.81380507       3.03980511       0.00603213       0.00657457      -0.00505410
C        1.50644308      -0.10401844       1.59006737       0.02896872       0.02707568      -0.02023104
B       -0.94218620       1.06549204       1.55984306       0.01389041       0.00366843       0.00088991
B       -1.20708984      -0.72044301       1.63600000       0.04729992       0.11529103      -0.21197516
B        0.43412374      -1.38797426       1.51244193       0.00149180      -0.01314214       0.01229304
B        1.32469396      -0.92259718       3.04113754      -0.00261489      -0.01762161       0.00257214
C        1.12924424       0.97598540      -1.59043132       0.01675715      -0.01578420       0.00342917
B        1.62188889       0.25045243      -3.01889916       0.01404675       0.00241227      -0.00250595
B        0.70472006      -1.25695815      -3.07456846       0.00598842      -0.01236780      -0.00542631
B       -1.02533519      -0.82505344      -3.10567370      -0.00433682      -0.01212826      -0.00328135
B        0.15705078       0.17971430      -4.00056662      -0.00175325      -0.00749405      -0.00473439
B        0.48926843       1.58958190      -3.05659008       0.00245765       0.00526044      -0.00618837
C       -0.42876051       1.36296932      -1.62231768       0.01011837       0.02787584       0.02303770
B        1.34719692      -0.68754055      -1.51808331       0.01063091       0.01848303      -0.00111987
B       -0.27500000      -1.43300000      -1.61500000      -0.03993589       0.16500250       0.19879660
B       -1.38269611      -0.01469711      -1.54357824      -0.00370803      -0.01227368      -0.00830896
B       -1.13580119       0.93967946      -3.07982234      -0.01886947      -0.01527190      -0.00964576
Co       0.00000000       0.00000000       0.00000000       0.03355842      -0.23015827       0.02622367
H        1.18053150       2.15253274       1.09493853      -0.00281743      -0.01236686       0.03633456
H       -0.20106785       2.66947025       3.45398169      -0.00261384      -0.01137486       0.00575557
H       -2.31280222       0.42356514       3.68858839       0.00630240      -0.00606866       0.00275066
H       -0.80030067      -2.25773711       3.67550175       0.00389268      -0.00794981      -0.00245873
H        0.30013137       0.12491630       5.19252544       0.00038902      -0.00652992       0.00522552
H        2.52179290       1.37510852       3.34665775      -0.01094621      -0.00467025       0.00756897
H        2.46497675      -0.15841075       1.06530713      -0.01443779      -0.01268614       0.03277513
H       -1.66108478       1.91078547       1.11206635       0.00810878       0.00096644      -0.01444152
H       -2.19175427      -1.26655703       1.23050857       0.00339817       0.01486315       0.01804212
H        0.79713334      -2.44031224       1.07712678      -0.00984398      -0.00126291      -0.00759105
H        2.20501240      -1.62529572       3.43136032       0.00060870      -0.00267455       0.00039499
H        1.82339252       1.65351045      -1.08268808      -0.01435503       0.00156361      -0.03682896
H        2.74051118       0.40943325      -3.40108821      -0.01324007       0.00249168      -0.00465553
H        1.14243261      -2.22042459      -3.62809899      -0.00427247       0.00756305      -0.00317450
H       -1.84456797      -1.47740363      -3.67919684      -0.00633363      -0.00165532       0.00047293
H        0.18610024       0.18946937      -5.18998641      -0.00240979      -0.00097011      -0.00546291
H        0.77632562       2.69568030      -3.38054219      -0.00955898      -0.00425446      -0.00687473
H       -0.74580159       2.28534448      -1.12551787      -0.02215264      -0.00933492      -0.03047565
H        2.34338486      -1.14173630      -1.03750724      -0.00451013       0.01286599       0.00999536
H       -0.55841346      -2.51358679      -1.18603220       0.02348281       0.02264419      -0.02156217
H       -2.50515603       0.05813695      -1.13739756      -0.00579637      -0.01679000       0.01080216
H       -2.03528641       1.59638123      -3.50477400      -0.00827152      -0.00303371      -0.00032414
