45
Properties=species:S:1:pos:R:3:forces:R:3 charge=-1 spin=1 energy=-242.29786682128906 free_energy=-242.29786682128906 stress="-8.955402108767885e-08 1.6989348816665029e-09 6.298882482269619e-08 1.6989348816665029e-09 -5.068910624572709e-08 5.682462500544716e-08 6.298882482269619e-08 5.682462500544716e-08 -2.0514744392130524e-07" pbc="F F F"
C       -1.43608271      -0.02375840       1.55400000      -0.25750828      -0.05782098       0.21308753
B       -1.27532054      -0.84522611       3.02669696       0.00217003       0.00026353       0.00326195
B        0.44196639      -1.24586297       3.08862446      -0.00258062       0.00122282       0.00106563
B        1.34868832       0.29121996       3.08467892      -0.00073910       0.00215804       0.00310885
B       -0.20008136       0.16524828       3.98059648      -0.00193888       0.00310697      -0.00054857
B       -1.43502665       0.89592694       3.01971591       0.00433771       0.00178648       0.00395183
C       -0.63246160       1.35308622       1.56400000       0.02818593       0.04804204       0.14703459
B       -0.40896457      -1.35197773       1.51363744       0.00362617       0.00233325       0.00217430
B        1.24724713      -0.68340815       1.60034290       0.00113988       0.00007811       0.00083607
B        1.02356584       1.09272213       1.53839179       0.00138347       0.00196409       0.00080459
B        0.16951191       1.60209065       3.02448753      -0.00406834      -0.00114217      -0.00082665
C        1.14300000       0.92400000      -1.55300000       0.14154628       0.00955927      -0.13371338
B        1.62045083       0.17399780      -2.98923612      -0.00083922      -0.00159740      -0.00202394
B        0.66821202      -1.31212629      -3.01830186       0.00115331       0.00267701      -0.00048318
B       -1.05420070      -0.84826036      -3.06925599      -0.00059021       0.00100398      -0.00303432
B        0.15978986       0.12133484      -3.96288313      -0.00064962       0.00279904      -0.00042774
B        0.52122137       1.53091325      -3.03451934      -0.00432502      -0.00108863      -0.00335746
C       -0.40000000       1.32300000      -1.56800000      -0.14212257       0.20838252      -0.32267398
B        1.31742461      -0.74114635      -1.44514688      -0.00140992      -0.00397902      -0.00027815
B       -0.33284751      -1.43149762      -1.54787134      -0.00021812       0.00155479      -0.00167945
B       -1.42628975      -0.01259549      -1.55604934      -0.00127319       0.00064521      -0.00135867
B       -1.12188674       0.91633300      -3.04538755       0.00304260       0.00169516       0.00086588
Co       0.00000000       0.00000000       0.00000000       0.24286538      -0.20945053       0.10090703
H       -2.40578656      -0.06098597       1.05038282      -0.00581745       0.00180445      -0.00565872
H       -2.17493828      -1.52153389       3.41841005      -0.00355737      -0.00126584      -0.00035073
H        0.83045729      -2.22182741       3.65577982      -0.00175835       0.00020106      -0.00023267
H        2.38814869       0.42092235       3.65580460       0.00059879      -0.00049590       0.00133349
H       -0.22234135       0.18084267       5.17035150      -0.00210419       0.00049099      -0.00305118
H       -2.42422197       1.47565354       3.32731020      -0.00109729       0.00086774      -0.00224976
H       -1.07794267       2.21923286       1.06551780       0.00322394      -0.00532463      -0.00172149
H       -0.79371354      -2.40201173       1.09356993      -0.00082709      -0.00114302       0.00147855
H        2.22457493      -1.26469208       1.23471035       0.00106073       0.00016148       0.00329390
H        1.75836741       1.91662221       1.07933151      -0.00099639      -0.00053748      -0.00096676
H        0.32143107       2.71407179       3.42525411       0.00000448      -0.00276995      -0.00044993
H        1.85128858       1.58540014      -1.04778284      -0.00769128      -0.00267946       0.00107286
H        2.74310733       0.29806584      -3.36875184       0.00369984       0.00135723       0.00018564
H        1.08415397      -2.29837019      -3.54686613       0.00109757       0.00157614       0.00127899
H       -1.87369971      -1.49682899      -3.64498684       0.00003318      -0.00118831      -0.00107252
H        0.18492281       0.11628801      -5.15273602       0.00159977       0.00133105       0.00230069
H        0.82070012       2.63045452      -3.36652212       0.00053765       0.00289136       0.00141811
H       -0.69625305       2.27410332      -1.11440729       0.00137923      -0.00600134       0.00136803
H        2.31317980      -1.21193279      -0.98553301      -0.00122260       0.00141993      -0.00341985
H       -0.62639443      -2.51601409      -1.14232696      -0.00129864      -0.00307484      -0.00149722
H       -2.53881575       0.07566184      -1.12422551       0.00059837       0.00001484       0.00038594
H       -1.99493127       1.60418785      -3.47545649       0.00134896      -0.00182898      -0.00013824
