45
Properties=species:S:1:pos:R:3:forces:R:3 charge=-1 spin=1 energy=-242.311279296875 free_energy=-242.311279296875 stress="1.656282755391203e-08 5.927341950595633e-10 -2.4298616452256283e-08 5.927341950595633e-10 2.9759399389206465e-09 4.867096237148871e-08 -2.4298616452256283e-08 4.867096237148871e-08 3.352401023448692e-08" pbc="F F F"
C        1.43254383      -0.37518040       1.59354812       0.01223712       0.00225148       0.01275310
B        1.49203179       0.45326487       3.05057113      -0.00640759       0.00799962       0.00251016
B       -0.05837569       1.30604931       3.11043267      -0.00282936      -0.00204122       0.00165735
B       -1.34612103       0.07179069       3.10678429       0.00268209      -0.00616840      -0.00317637
B        0.17694989      -0.23561740       4.00189125      -0.00744121      -0.00013506      -0.00013401
B        1.16976121      -1.27292123       3.03642946      -0.00409182      -0.00043008       0.01145472
C        0.27382394      -1.48377588       1.58335578      -0.01580718      -0.00943381       0.00611758
B        0.79309633       1.18009602       1.56129810       0.00558096       0.00426604      -0.00185406
B       -0.99800000       0.99000000       1.63600000       0.11416715       0.03830549      -0.10265422
B       -1.23681098      -0.76979224       1.51782203       0.00163803      -0.00571099      -0.03161128
B       -0.56298131      -1.51209647       3.04178676      -0.00578573      -0.00260926       0.00191447
C        1.13048242       0.97130448      -1.58455284       0.00187445       0.01194105      -0.00548375
B        1.62352579       0.25104414      -3.01909900       0.00117102      -0.00457966       0.00095558
B        0.70496927      -1.25796683      -3.07122990      -0.00054047       0.00066935      -0.00115473
B       -1.02479284      -0.82650896      -3.10656089       0.00207829       0.00396816       0.00336595
B        0.15997815       0.18150026      -3.99954652      -0.00365051      -0.00386328       0.00119450
B        0.49388417       1.59144565      -3.05446898      -0.00521035       0.00077587      -0.01027391
C       -0.42460100       1.36317315      -1.61795364      -0.01844500       0.00117558      -0.00849390
B        1.34223271      -0.69124376      -1.51240634       0.00859809       0.00113001      -0.00426084
B       -0.27500000      -1.43300000      -1.61500000      -0.01810151       0.13585556       0.07234718
B       -1.38589969      -0.00877929      -1.55604539      -0.00244477       0.00431538       0.03523657
B       -1.13373527       0.94176532      -3.08086507      -0.00713854      -0.00601960      -0.00477452
Co       0.00000000       0.00000000       0.00000000      -0.06487908      -0.17534444       0.02310502
H        2.36565015      -0.60258945       1.07293708       0.02630699      -0.01541066       0.03718486
H        2.53989382       0.85868451       3.45057113      -0.00811568      -0.00090568       0.00702159
H       -0.16098807       2.34711832       3.68509706      -0.00765379      -0.00181541       0.00540983
H       -2.38321942       0.21999431       3.68050518      -0.00170043      -0.01026699      -0.00860587
H        0.19811010      -0.25807905       5.19205809      -0.00275457      -0.00294190      -0.00007175
H        1.96077994      -2.10352978       3.34385243       0.00185500      -0.00173917       0.00388792
H        0.45617658      -2.42063157       1.05016402      -0.00080737      -0.00389102      -0.00016050
H        1.44513868       2.08347644       1.12357101      -0.00950585       0.00013854      -0.00650177
H       -1.77038901       1.80765268       1.22743854      -0.00056929       0.00663115      -0.00029506
H       -2.17183005      -1.37666497       1.08415648       0.01554847       0.00367356      -0.01074232
H       -1.02315991      -2.54005808       3.43302797      -0.00350064      -0.00374179      -0.00530395
H        1.81955195       1.63919957      -1.06126736       0.00243944       0.03109545      -0.02132535
H        2.74244679       0.40578294      -3.40067609      -0.00201705       0.00629656      -0.00095287
H        1.14231471      -2.22000303      -3.62578682       0.00014152      -0.00224571      -0.00162450
H       -1.84284365      -1.47867954      -3.68262825       0.00009118       0.00285126       0.00562855
H        0.18438045       0.19099072      -5.18977460       0.00430994      -0.00219544       0.00131217
H        0.78028343       2.69742577      -3.37801686      -0.00445503       0.00444350      -0.00189005
H       -0.74200823       2.28089060      -1.11396238      -0.01014119       0.00308561      -0.00581308
H        2.34559850      -1.14030188      -1.04056881      -0.00363370      -0.00252455      -0.01021554
H       -0.55882050      -2.51100026      -1.18199177       0.00841208      -0.00268558       0.00671583
H       -2.50899741       0.05634086      -1.14856784       0.01286533       0.00020191       0.00921723
H       -2.03251549       1.60152084      -3.50346406      -0.00436963      -0.00437106      -0.00161622
