45
Properties=species:S:1:pos:R:3:forces:R:3 charge=-1 spin=1 energy=-242.3048553466797 free_energy=-242.3048553466797 stress="-6.699484345062956e-08 2.5487878474450554e-08 -3.379002677661447e-08 2.5487878474450554e-08 -8.09231437415292e-08 1.0420116325349227e-07 -3.379002677661447e-08 1.0420116325349227e-07 -1.5214867232771212e-07" pbc="F F F"
C        1.01467724      -1.01652748       1.55400000       0.18910183      -0.06464732       0.25697494
B        1.48799655      -0.33561577       3.03029433      -0.00027556       0.00110590       0.00059517
B        0.58475740       1.18676367       3.09102442       0.00143673       0.00002816      -0.00176764
B       -1.14861333       0.77161901       3.07396644      -0.00116324       0.00191909      -0.00114702
B        0.00554247      -0.26208220       3.97977997       0.00112326       0.00103819      -0.00016315
B        0.33957079      -1.66004108       3.02439823      -0.00050883      -0.00066801      -0.00144758
C       -0.53398403      -1.39488747       1.56400000      -0.06363821      -0.07029685       0.01121604
B        1.27151974       0.65249049       1.55242629       0.00163656       0.00099855      -0.00052547
B       -0.36371847       1.37985819       1.60099498       0.00085825      -0.00063780      -0.00113544
B       -1.48251852      -0.01784609       1.50432049      -0.00205222      -0.00339001       0.00144032
B       -1.27480024      -0.99162185       3.02446787      -0.00001678      -0.00212769      -0.00310032
C        1.14300000       0.92400000      -1.55300000       0.12108836      -0.01640463      -0.11432715
B        1.62546028       0.19341197      -2.99437786      -0.00050192       0.00170226       0.00105193
B        0.67550305      -1.29937995      -3.04066434       0.00271325       0.00152473       0.00017409
B       -1.04501535      -0.83470181      -3.08695153      -0.00203830      -0.00040214      -0.00087070
B        0.16330860       0.14981002      -3.97263043       0.00231182       0.00245235      -0.00175645
B        0.51993909       1.55146753      -3.03165352       0.00091412       0.00095038       0.00166163
C       -0.40000000       1.32300000      -1.56800000      -0.13441207       0.28923005      -0.22047955
B        1.33050647      -0.74755615      -1.49390190       0.00172475       0.00078824       0.00045720
B       -0.32124226      -1.43473756      -1.58129612       0.00111227       0.00153071       0.00049424
B       -1.41192418      -0.01476305      -1.54880145      -0.00112882       0.00512022      -0.00156745
B       -1.11559446       0.93193160      -3.05694143       0.00047638       0.00470974       0.00386477
Co       0.00000000       0.00000000       0.00000000      -0.10413156      -0.16557756       0.08229490
H        1.71388629      -1.69289553       1.05484432      -0.00397292       0.00675262      -0.00205937
H        2.59530545      -0.52333771       3.42972780      -0.00043112       0.00070180       0.00092937
H        1.01170634       2.13812163       3.67148166      -0.00101145       0.00077954      -0.00060029
H       -1.97306962       1.42720531       3.63522020      -0.00258127       0.00195901      -0.00061502
H        0.00682613      -0.28711622       5.16993091      -0.00066012       0.00171990       0.00103021
H        0.60661346      -2.77563210       3.33074940      -0.00034077       0.00000659       0.00159259
H       -0.84749650      -2.30091440       1.03883095       0.00066186       0.00301439       0.00240779
H        2.28502286       1.10536765       1.10694342       0.00079215      -0.00098174      -0.00024810
H       -0.63482038       2.46761312       1.17965032       0.00094391      -0.00002037      -0.00130054
H       -2.59415339      -0.07865636       1.07400366       0.00042198       0.00053721       0.00060225
H       -2.19312725      -1.64459432       3.41357644      -0.00080381       0.00070339       0.00021362
H        1.84651635       1.58232183      -1.03599487      -0.00099945      -0.00555527       0.00216471
H        2.74740422       0.33071276      -3.37245295      -0.00207239       0.00079945      -0.00153969
H        1.09092393      -2.27601387      -3.58586362      -0.00124457       0.00084387      -0.00363292
H       -1.86809381      -1.47722982      -3.66480947      -0.00379853      -0.00032037      -0.00263112
H        0.19431491       0.15219380      -5.16252325      -0.00083744       0.00198420      -0.00334962
H        0.81857900       2.65592354      -3.34879036      -0.00083513       0.00014585       0.00029862
H       -0.70158214       2.25449195      -1.07901968       0.00066250      -0.00038140      -0.00031921
H        2.31411744      -1.21994810      -1.00668448       0.00032242      -0.00018341      -0.00175920
H       -0.63078332      -2.50774852      -1.15118216       0.00096904      -0.00070611      -0.00155901
H       -2.53546549       0.08693696      -1.15733691       0.00093072      -0.00158320      -0.00165257
H       -1.99759851       1.61561748      -3.47591435      -0.00074525       0.00083780       0.00009027
