45
Properties=species:S:1:pos:R:3:forces:R:3 charge=-1 spin=1 energy=-54314.459649102864 free_energy=-54314.459649102864 stress="0.9031916856765747 -0.35857951641082764 0.2698424458503723 -0.35857951641082764 1.0348472595214844 -0.922540545463562 0.2698424458503723 -0.922540545463562 1.563623309135437" pbc="F F F"
C        1.39976120       0.32181761       1.55400000       0.01862517      -0.19935098      -0.09869280
B        1.07985829       1.10880802       3.01497252      -0.00098795       0.00256189      -0.00362870
B       -0.68669527       1.17190597       3.09744903       0.00383337       0.00250568       0.00043978
B       -1.28278521      -0.49615736       3.07634393       0.00068600      -0.00407848      -0.00076367
B        0.20904737      -0.09519877       3.97714240      -0.00122157      -0.00097148      -0.00016802
B        1.58670799      -0.58489980       2.96705542      -0.00042235       0.00129340      -0.00037080
C        0.89996324      -1.19202188       1.56400000      -0.56079835       0.57936233      -0.36295620
B        0.13371361       1.44172804       1.55074134       0.00195024      -0.00083532      -0.00141257
B       -1.36091481       0.47469000       1.58210543      -0.00099482      -0.00137099       0.00413423
B       -0.81267592      -1.22788068       1.51063711      -0.00279478       0.00273288      -0.00211562
B        0.11484442      -1.57229151       3.00244236      -0.00074437       0.00139614       0.00176195
C        1.14300000       0.92400000      -1.55300000      -0.37827206       0.01083100       0.24345489
B        1.63546114       0.19400277      -2.98907916       0.00078528      -0.00250808       0.00306630
B        0.69678279      -1.30255285      -3.06598580       0.00398218       0.00157188      -0.00040261
B       -1.02023923      -0.86795050      -3.09441000      -0.00131437       0.00073664       0.00065320
B        0.16679041       0.13619697      -3.97762082      -0.00238751       0.00071910       0.00037443
B        0.51114832       1.55980992      -2.97390372       0.00089369      -0.00098833       0.00123507
C       -0.40000000       1.32300000      -1.56800000       0.00635571      -0.20832635       0.22534402
B        1.33885024      -0.74623719      -1.50918706       0.00033717       0.00216709       0.00118423
B       -0.29308689      -1.44964507      -1.57288565      -0.00240879       0.00026766      -0.00282215
B       -1.40882597      -0.05582653      -1.54898571      -0.00059779      -0.00488587      -0.00019612
B       -1.12811557       0.89247445      -3.03373511       0.00183464      -0.00002508      -0.00190708
Co       0.00000000       0.00000000       0.00000000       0.90667605      -0.18860218      -0.00755327
H        2.34468939       0.50234082       1.06517507       0.00321375       0.00173772       0.00260471
H        1.85477330       1.91111249       3.41245668       0.00074142      -0.00024442      -0.00420947
H       -1.23607030       2.05632452       3.66339668      -0.00058773       0.00081374       0.00006094
H       -2.26812899      -0.84065503       3.63707018       0.00002977       0.00040421      -0.00090156
H        0.28652587      -0.13206610       5.15992816       0.00171323      -0.00011642      -0.00054387
H        2.65980837      -0.96197112       3.28880985       0.00057815      -0.00098251      -0.00457509
H        1.50274380      -1.92002718       1.04884895      -0.00280175       0.00376108       0.00438800
H        0.31232690       2.52725651       1.09090028       0.00087451      -0.00084058      -0.00240933
H       -2.42651591       0.85882063       1.22565513      -0.00025420       0.00073484      -0.00210257
H       -1.38336999      -2.16890506       1.07656696      -0.00024490       0.00055318       0.00006993
H        0.18250708      -2.68362714       3.40317529       0.00027765       0.00013115      -0.00430929
H        1.80403797       1.61146347      -1.04918588       0.00134810       0.00175221      -0.00250915
H        2.74217009       0.37913348      -3.36749092      -0.00026429       0.00012798       0.00480464
H        1.13620425      -2.26251695      -3.60431535       0.00013799      -0.00138659       0.00045059
H       -1.84138624      -1.49971821      -3.66927876       0.00014409       0.00048254       0.00066295
H        0.20248027       0.21040048      -5.16064366       0.00125252       0.00106823       0.00087981
H        0.78675239       2.66337027      -3.29519023      -0.00086454       0.00013651       0.00417179
H       -0.67825466       2.24936375      -1.09316579       0.00174479      -0.00338546      -0.00246001
H        2.32209850      -1.20711762      -1.01745755      -0.00032949       0.00131751       0.00195298
H       -0.56795583      -2.54388493      -1.20420005      -0.00028282      -0.00115846       0.00042036
H       -2.51740236       0.01031973      -1.14051951       0.00053077       0.00082003       0.00119198
H       -1.99649712       1.57672780      -3.45525072       0.00002832       0.00007085       0.00370305
