45
Properties=species:S:1:pos:R:3:forces:R:3 charge=-1 spin=1 energy=-54314.356661813435 free_energy=-54314.356661813435 stress="-0.3801030218601227 -0.1309199035167694 0.21067041158676147 -0.1309199035167694 -0.26491332054138184 0.026192791759967804 0.21067041158676147 0.026192791759967804 0.6446567177772522" pbc="F F F"
C       -0.05009691       1.44077243       1.51611640       0.01424043       0.00326188       0.00185025
B       -0.84443271       1.29283786       2.99822036       0.01199816       0.00414367       0.01850368
B       -1.19107976      -0.43463267       3.13550360       0.00602865      -0.01137298       0.01219176
B        0.35406663      -1.29712256       3.11764603       0.01007395      -0.00521648      -0.00642240
B        0.22253375       0.26741976       3.96974114       0.00059749      -0.00683970       0.01016117
B        0.90619815       1.50788080       2.90597931       0.01543469      -0.00620196      -0.01170154
C        1.32336293       0.66881395       1.49591408      -0.00525195       0.01232421      -0.01518596
B       -1.36985253       0.37230726       1.56558245      -0.03711504       0.00868078       0.00878717
B       -0.63314699      -1.25508123       1.63600000      -0.35853755      -0.03181686      -0.31510609
B        1.10689771      -1.00654446       1.52029733       0.00500705       0.00668976      -0.03900434
B        1.63588336      -0.10068550       2.96922462       0.00692263      -0.01264098      -0.00495255
C        0.97142615       1.03168096      -1.54930328      -0.01219836       0.01457664      -0.00032482
B        1.49632134       0.37727716      -3.01478379      -0.00583573       0.01152645      -0.00909800
B        0.67022929      -1.18071713      -3.11711822      -0.00346676      -0.00316148      -0.00527617
B       -1.07264096      -0.86798183      -3.10537263      -0.00350368      -0.00706105       0.00254931
B        0.02190363       0.23854234      -3.98395920      -0.00424274      -0.00893258      -0.01178623
B        0.28035422       1.65613641      -2.95486470      -0.01643847       0.00348086       0.00982851
C       -0.57887337       1.30745935      -1.53535479       0.00615976       0.00598231       0.01173125
B        1.31382103      -0.62831898      -1.55600817       0.02974445      -0.01640736       0.00942181
B       -0.27500000      -1.43300000      -1.61500000       0.11558083      -0.08207908       0.38223609
B       -1.47114345      -0.13064051      -1.52405591      -0.01038077       0.00906664       0.01489271
B       -1.30495622       0.87356740      -2.99779533      -0.01379670      -0.00957931      -0.00560883
Co       0.00000000       0.00000000       0.00000000       0.31109810       0.16249868      -0.05070188
H       -0.08427900       2.40090558       1.02301988       0.01165489      -0.01671308      -0.00224673
H       -1.50130325       2.19987634       3.38021187      -0.00984513       0.01377444       0.00615139
H       -2.14141323      -0.81745448       3.72872672      -0.00917073      -0.00004958       0.00900249
H        0.54254459      -2.31131821       3.69840052      -0.00139028      -0.00879279       0.00969880
H        0.30124207       0.37507660       5.14726711       0.00278986       0.00267169       0.01833733
H        1.47791135       2.51115932       3.16184564       0.00422775      -0.00166223       0.00336637
H        2.15564224       1.13065261       0.98964488       0.00087214      -0.00211884      -0.01874934
H       -2.42725348       0.71486080       1.14774619       0.03089277      -0.00792478       0.01127165
H       -1.19561350      -2.24951884       1.31465283       0.00013113       0.00060490       0.00350350
H        1.93247514      -1.73065608       1.08510408       0.00889103      -0.01472764      -0.00094119
H        2.75954854      -0.19265282       3.32675792       0.01880552      -0.00609800       0.00984282
H        1.60671192       1.76324389      -1.07279936      -0.01921456      -0.00537612       0.00492275
H        2.58236665       0.65075881      -3.39693370       0.00923206       0.01270276      -0.01450809
H        1.16551662      -2.09267037      -3.68711708       0.00606616      -0.00116912      -0.01165556
H       -1.86230903      -1.54267217      -3.67342668      -0.00225110      -0.01356127      -0.00855220
H        0.03233162       0.34305848      -5.16425801      -0.00982803       0.00547160      -0.02169612
H        0.47824417       2.78724566      -3.23808964      -0.01911143       0.00511497      -0.00209678
H       -0.92743519       2.20705793      -1.05413253      -0.01396048       0.00048842       0.01850801
H        2.34787122      -1.02106028      -1.12497451      -0.03043361       0.01723954      -0.01888713
H       -0.47149386      -2.54871653      -1.26267943       0.00632261      -0.00108467      -0.00442727
H       -2.57071457      -0.15151268      -1.09128563      -0.01852777      -0.01801176       0.00507165
H       -2.22911927       1.50745530      -3.37596743      -0.02827125      -0.00170100      -0.00290152
