45
Properties=species:S:1:pos:R:3:forces:R:3 charge=-1 spin=1 energy=-54314.49346257943 free_energy=-54314.49346257943 stress="1.0207480192184448 0.0186760276556015 0.268908828496933 0.0186760276556015 0.9978886246681213 -1.185688853263855 0.268908828496933 -1.185688853263855 2.113062620162964" pbc="F F F"
C        1.42691044       0.16378213       1.55400000      -0.26404777      -0.06087911      -0.02459189
B        1.17835025       0.97542959       3.01861272       0.00598389      -0.00380593       0.00355355
B       -0.57662834       1.20281569       3.11146513       0.00940305       0.00659854      -0.01243815
B       -1.33014262      -0.40095023       3.08606170       0.00130729       0.01626816      -0.00033263
B        0.20012918      -0.14462122       3.98182560      -0.00530817       0.00368653      -0.00509574
B        1.52082495      -0.75769964       2.96392146      -0.00107833      -0.00500060      -0.00624241
C        0.76148119      -1.28491105       1.56400000      -0.19912711       0.49554464      -0.52951378
B        0.26206541       1.40321559       1.56286070       0.00565417       0.00260084      -0.01054387
B       -1.31758872       0.58033692       1.59513096       0.00568972       0.01094246      -0.02287496
B       -0.93459768      -1.16248781       1.51156741      -0.01657176       0.03439941      -0.00431148
B       -0.04111947      -1.60060098       3.00220144      -0.00151685       0.00665778       0.00816883
C        1.14300000       0.92400000      -1.55300000      -0.43068364      -0.30779687       0.22529465
B        1.62026353       0.16783489      -2.98361872       0.00033244       0.00948638      -0.00793467
B        0.65437436      -1.31496145      -3.05885841       0.01154426       0.00756266       0.00834622
B       -1.05626542      -0.85337732      -3.08984056       0.01018644      -0.00374560      -0.00068588
B        0.15136738       0.12883987      -3.97437314      -0.00262187      -0.00082130       0.00433570
B        0.51791670       1.55099549      -2.97556319      -0.00344124       0.00451981       0.00758537
C       -0.40000000       1.32300000      -1.56800000       0.07682614       0.01732414       0.31737500
B        1.30915597      -0.76420713      -1.50578248       0.00453818       0.00779130       0.00551529
B       -0.33751267      -1.44133469      -1.56671061       0.01006227      -0.00185356       0.01350556
B       -1.42843769      -0.02979937      -1.54511922       0.01829836      -0.03145402       0.02055855
B       -1.13234227       0.90742842      -3.03399774       0.00367798      -0.00268138      -0.00691060
Co       0.00000000       0.00000000       0.00000000       0.71811593      -0.25785920       0.02195335
H        2.38118935       0.25358759       1.06016650       0.01494461      -0.01740416      -0.00455711
H        2.02458046       1.70028357       3.41894888       0.00401327       0.00115717       0.00041412
H       -1.03435199       2.13397325       3.68476887       0.00069935      -0.00176770      -0.00866493
H       -2.33894652      -0.65232999       3.65486090      -0.00557000       0.00552303      -0.01439690
H        0.28177223      -0.19283396       5.16433416      -0.00859876      -0.00135504      -0.00880801
H        2.55181326      -1.24385435       3.27664008      -0.00422420      -0.00452141       0.00319194
H        1.28593395      -2.06726620       1.04130845       0.00185509      -0.00270441       0.01188253
H        0.52791468       2.47625567       1.11619065       0.02869502      -0.00951352      -0.02626416
H       -2.34099866       1.05990361       1.22717090       0.01180277       0.01672981       0.02416966
H       -1.58113839      -2.04622512       1.06121253      -0.01493312       0.02645898       0.02173425
H       -0.07059874      -2.71540815       3.39728613      -0.00968992      -0.00614436      -0.01097302
H        1.81181773       1.60006029      -1.04560572       0.00002161       0.01895328      -0.00118351
H        2.72935819       0.32959216      -3.36503419       0.00319202       0.00479742      -0.00135673
H        1.08239441      -2.28260869      -3.59352576      -0.00316875       0.00596406       0.00229942
H       -1.88552335      -1.47275165      -3.66689085      -0.00099179      -0.00126549       0.00808553
H        0.19202988       0.19879783      -5.15783686      -0.00755768       0.00239163       0.00851191
H        0.80456261       2.65005090      -3.30208601      -0.00641237       0.00247622       0.00116355
H       -0.66953102       2.25296852      -1.09386215       0.00264144       0.00207692      -0.00565019
H        2.28131656      -1.25666796      -1.02261046       0.00940222       0.03576362       0.02899612
H       -0.63583186      -2.52306311      -1.17576735       0.02768082      -0.00260733      -0.03527141
H       -2.53083283       0.06553293      -1.12381210       0.00948729      -0.02418493      -0.01005243
H       -1.98577987       1.60734078      -3.45955853      -0.01051212       0.00169103       0.01201349
