45
Properties=species:S:1:pos:R:3:forces:R:3 charge=-1 spin=1 energy=-242.3117218017578 free_energy=-242.3117218017578 stress="-6.631613302943151e-08 2.4514946517228964e-08 -3.9000248364118306e-08 2.4514946517228964e-08 -8.45123580006657e-08 1.0449812037904849e-07 -3.9000248364118306e-08 1.0449812037904849e-07 -1.5989998303211905e-07" pbc="F F F"
C        1.14627575      -0.86541892       1.55400000       0.18627374      -0.04406980       0.28803819
B        1.51815189      -0.12456893       3.03192769      -0.00043683      -0.00102456      -0.00044789
B        0.41293292       1.25755931       3.09021525       0.00185315       0.00025433      -0.00121880
B       -1.24629311       0.60623366       3.06986037      -0.00183587       0.00241168      -0.00250446
B        0.03842954      -0.25657179       3.97903403       0.00023417       0.00185755      -0.00017243
B        0.56438633      -1.59527963       3.02550970      -0.00066126      -0.00080882      -0.00165598
C       -0.33465652      -1.45562873       1.56400000      -0.05365086      -0.06976044       0.01272431
B        1.17166668       0.82131196       1.55298251       0.00266945      -0.00060289      -0.00061256
B       -0.54782817       1.31757726       1.59815311       0.00172396      -0.00045231      -0.00113939
B       -1.46368833      -0.22254908       1.49893386      -0.00233021      -0.00261724       0.00204735
B       -1.12672089      -1.15731127       3.02265413      -0.00054946      -0.00202787      -0.00429441
C        1.14300000       0.92400000      -1.55300000       0.11010460      -0.00755629      -0.14675637
B        1.62350171       0.19634569      -2.99798567      -0.00087468       0.00302773       0.00158806
B        0.67418242      -1.29619795      -3.04612373       0.00322916       0.00159119      -0.00010478
B       -1.04655893      -0.83226292      -3.08772313      -0.00233863      -0.00155310       0.00067770
B        0.15997974       0.15398370      -3.97443300       0.00199976       0.00084634      -0.00142820
B        0.51736698       1.55373996      -3.03133815       0.00089699       0.00093067       0.00264731
C       -0.40000000       1.32300000      -1.56800000      -0.14051220       0.29772946      -0.21484551
B        1.33266738      -0.74574193      -1.49936942       0.00344062       0.00223144       0.00158636
B       -0.31673488      -1.43511759      -1.58433413       0.00158589       0.00227305       0.00156839
B       -1.40953444      -0.01574677      -1.54542917      -0.00228429       0.00397781      -0.00236465
B       -1.11775791       0.93359487      -3.05583165      -0.00048901       0.00449963       0.00559796
Co       0.00000000       0.00000000       0.00000000      -0.08630412      -0.19548646       0.07118500
H        1.93316287      -1.44249413       1.06206606       0.00015700       0.00199701      -0.00756002
H        2.64017999      -0.15696110       3.43309321      -0.00224417      -0.00069084       0.00176343
H        0.70193869       2.25964385       3.67020476      -0.00023896       0.00057879       0.00031553
H       -2.15558954       1.14051454       3.62872509      -0.00262426       0.00295733      -0.00206013
H        0.04248280      -0.28000615       5.16916032      -0.00335862       0.00104798       0.00142410
H        0.98424031      -2.66227536       3.33367574      -0.00212441      -0.00044584       0.00160259
H       -0.52018201      -2.39588601       1.03871212      -0.00139568      -0.00151532       0.00171044
H        2.12025863       1.40838069       1.12093333      -0.00038378      -0.00178920      -0.00148037
H       -0.96160302       2.35781481       1.17301520       0.00157497       0.00150169      -0.00080837
H       -2.55243778      -0.43459018       1.05678862       0.00209816       0.00082765       0.00545138
H       -1.94572952      -1.93127390       3.41159549      -0.00284170       0.00152577      -0.00152653
H        1.84635693       1.58577748      -1.04123606       0.00258559      -0.00204958       0.00354470
H        2.74476941       0.33514660      -3.37756821      -0.00386330       0.00176736      -0.00186969
H        1.08809580      -2.27196069      -3.59384549      -0.00049056       0.00092369      -0.00381277
H       -1.87153943      -1.47299595      -3.66490267      -0.00354482      -0.00204411      -0.00083048
H        0.19052041       0.15838487      -5.16429516      -0.00317120       0.00212109      -0.00354163
H        0.81640510       2.65847766      -3.34727208      -0.00279423       0.00022650       0.00056049
H       -0.70338916       2.25307172      -1.07742165       0.00084104      -0.00009918       0.00073030
H        2.32466190      -1.21731538      -1.02829846      -0.00176629       0.00044193       0.00226028
H       -0.62201116      -2.50952256      -1.15515205       0.00211149      -0.00104835      -0.00145620
H       -2.52962734       0.08200848      -1.14168005       0.00250877      -0.00120537      -0.00621280
H       -2.00013148       1.61811972      -3.47268222      -0.00277896      -0.00069991       0.00168099
