45
Properties=species:S:1:pos:R:3:forces:R:3 charge=-1 spin=1 energy=-242.22682189941406 free_energy=-242.22682189941406 stress="-4.2623018003951074e-08 1.7761799142590462e-08 -3.471481591077463e-08 1.7761799142590462e-08 -1.032314287385816e-07 2.9403718571074933e-08 -3.471481591077463e-08 2.9403718571074933e-08 -2.0223477292802272e-07" pbc="F F F"
C        0.46884362       1.35760217       1.55400000       0.03454411       0.23744026       0.26535088
B       -0.36143183       1.47587425       3.02218362      -0.00062327      -0.00023387       0.00064784
B       -1.34118380       0.01020335       3.06578230      -0.00013202      -0.00223830       0.00156677
B       -0.21884203      -1.37897330       3.04418456       0.00218415       0.00007424       0.00248724
B        0.20533118       0.09636306       3.96468070       0.00502096       0.00072980      -0.00157331
B        1.32917413       1.01131927       3.02448193      -0.00199847      -0.00025363       0.00486000
C        1.48779975       0.13153675       1.56400000       0.02020347      -0.12764245       0.12179314
B       -1.14432225       0.88055093       1.53595811       0.00125021      -0.00008276      -0.00195743
B       -1.09045156      -0.91539656       1.55509211       0.00161925      -0.00113577      -0.00179747
B        0.65301271      -1.33090631       1.48821409       0.00134629      -0.00206479       0.00409935
B        1.42607036      -0.73486267       3.00721366      -0.00176118       0.00008839       0.00246208
C        1.14300000       0.92400000      -1.55300000       0.11494972       0.04268545      -0.19259439
B        1.61352802       0.18997011      -2.99553303       0.00071145      -0.00272535      -0.00307459
B        0.67743528      -1.30327728      -3.03002601      -0.00323026      -0.00231223       0.00007164
B       -1.05076541      -0.85506866      -3.05873370      -0.00025314       0.00117764      -0.00089438
B        0.13868798       0.13097305      -3.96124311      -0.00180250       0.00230350       0.00139028
B        0.49619068       1.53933369      -3.02739397      -0.00298791      -0.00195020      -0.00298410
C       -0.40000000       1.32300000      -1.56800000      -0.20859617       0.22677949      -0.25460833
B        1.35428784      -0.73831925      -1.49514039      -0.00210369      -0.00263734       0.00347275
B       -0.30398292      -1.43371814      -1.54120360      -0.00213713       0.00215361       0.00386319
B       -1.41091749      -0.02981989      -1.52120144      -0.00250065      -0.00047100      -0.00449860
B       -1.13779572       0.90824153      -3.03397251       0.00257042      -0.00016953      -0.00096754
Co       0.00000000       0.00000000       0.00000000       0.03622521      -0.36910149       0.04875814
H        0.78525640       2.29272705       1.08004367      -0.00227484       0.00774929      -0.00077780
H       -0.66596581       2.55115141       3.43667071      -0.00152642      -0.00014096      -0.00283965
H       -2.38841314      -0.02530976       3.63725310      -0.00197968      -0.00079980      -0.00145777
H       -0.46687088      -2.41052742       3.59180119       0.00204780       0.00022142       0.00047438
H        0.22250637       0.09598079       5.15445442      -0.00204583       0.00158745      -0.00385521
H        2.21446929       1.73251595       3.34987216      -0.00242355      -0.00047787      -0.00047946
H        2.45185188       0.23854433       1.05899918       0.00584286       0.00505280      -0.00221508
H       -1.97722858       1.59525086       1.05992625      -0.00189023      -0.00264853       0.00108434
H       -1.97725871      -1.62381847       1.17678068       0.00340292      -0.00379630      -0.00132415
H        1.18620035      -2.29354328       1.02371056      -0.00001940      -0.00033324       0.00261538
H        2.40711794      -1.28300330       3.40418470      -0.00204580       0.00283094       0.00102612
H        1.85348837       1.60119065      -1.06837215       0.00575066       0.00072048       0.00038274
H        2.72547486       0.34214704      -3.39622821       0.00278604      -0.00202544       0.00232284
H        1.08801832      -2.28045388      -3.57853440       0.00039680      -0.00245894       0.00386945
H       -1.87242693      -1.51255987      -3.62272203      -0.00039798       0.00125094       0.00155382
H        0.15526762       0.13530038      -5.15097875       0.00192680      -0.00343736       0.00326557
H        0.78529876       2.64281531      -3.35708391       0.00075974      -0.00447810      -0.00103799
H       -0.70998359       2.26058989      -1.09492569       0.00027435       0.00157236       0.00205313
H        2.33131873      -1.19720662      -0.98328889      -0.00044144      -0.00291375      -0.00045229
H       -0.57976668      -2.52720186      -1.14360325      -0.00438125       0.00297157       0.00174144
H       -2.52088936       0.06388743      -1.08670607      -0.00040104       0.00153138      -0.00075854
H       -2.02762320       1.58299218      -3.45081705       0.00414021      -0.00239226      -0.00106420
