45
Properties=species:S:1:pos:R:3:forces:R:3 charge=-1 spin=1 energy=-54314.56420232552 free_energy=-54314.56420232552 stress="0.7550503611564636 0.6192476749420166 -1.0816107988357544 0.6192476749420166 0.898812472820282 -1.3817662000656128 -1.0816107988357544 -1.3817662000656128 2.109992265701294" pbc="F F F"
C        0.27277060      -1.41013978       1.55400000      -0.00433772       0.38789758      -0.13157710
B        1.05003026      -1.08184644       3.02222445       0.00354263      -0.00228220       0.00011582
B        1.12986595       0.68567121       3.11440352       0.00155608      -0.00254652       0.00443748
B       -0.52899781       1.30455665       3.09255397       0.00126726       0.00216653      -0.00256802
B       -0.14938299      -0.19883691       3.98470235      -0.00194222      -0.00149909       0.00040038
B       -0.64663295      -1.56856825       2.96351422      -0.00035778       0.00153123       0.00215773
C       -1.22270400      -0.85781404       1.56400000       0.28475264       0.19559698      -0.58018667
B        1.41096535      -0.13867626       1.56164529      -0.00334335      -0.00426368       0.00002163
B        0.45307272       1.35888582       1.60142085      -0.00099419       0.00009589      -0.00295285
B       -1.24671990       0.83768965       1.52792448      -0.00252132       0.00202620      -0.00229904
B       -1.61951944      -0.08150969       3.00367835       0.00277281      -0.00034961      -0.00134641
C        1.14300000       0.92400000      -1.55300000      -0.39204663      -0.38646591       0.43705502
B        1.60769657       0.16245571      -2.97945550       0.00474290       0.00036483      -0.00017108
B        0.63745519      -1.31505545      -3.05852698       0.00365573       0.00103100      -0.00532193
B       -1.06943915      -0.84688666      -3.10169616      -0.00074406      -0.00224575       0.00165176
B        0.14169963       0.13231047      -3.97663202      -0.00053079       0.00192170      -0.00078019
B        0.51251801       1.55271256      -2.97298546      -0.00055796      -0.00134219      -0.00109518
C       -0.40000000       1.32300000      -1.56800000      -0.01389433       0.10805235       0.21992174
B        1.29921754      -0.77119302      -1.49282232      -0.00071518       0.00536706      -0.00063070
B       -0.34944623      -1.43057300      -1.57338138      -0.00069155       0.00306719       0.00337238
B       -1.43207183      -0.02143139      -1.56848430      -0.00319897      -0.00046872       0.00369993
B       -1.14063422       0.91783068      -3.04015453       0.00240347      -0.00088026       0.00108187
Co       0.00000000       0.00000000       0.00000000       0.09883343      -0.29633817       0.05819461
H        0.44413166      -2.34807668       1.05310669       0.00058251      -0.00491385      -0.00315267
H        1.84518571      -1.85720011       3.42959721       0.00245044      -0.00269045       0.00329937
H        2.02146983       1.21744330       3.68565917       0.00359991       0.00186511       0.00122772
H       -0.86206508       2.29497314       3.65250585       0.00021855       0.00218634       0.00029067
H       -0.19167471      -0.28375035       5.16686167       0.00195691       0.00105940       0.00091529
H       -1.04737113      -2.63466449       3.27807509       0.00003181       0.00228964       0.00048625
H       -1.96074682      -1.44386936       1.04108642      -0.00164874      -0.00211811      -0.00488927
H        2.50985741      -0.30392906       1.14815346      -0.00005651      -0.00284069      -0.00787863
H        0.84572549       2.41942073       1.22147483       0.00124028       0.00143732      -0.00182965
H       -2.16647768       1.41135948       1.04493255       0.00047366       0.00285136       0.00340752
H       -2.73626511      -0.14769638       3.39079709       0.00472925       0.00070779      -0.00050868
H        1.81185205       1.59073207      -1.03543240       0.00358897       0.00261641       0.00195028
H        2.71645473       0.31441416      -3.36272615       0.00455764       0.00029055      -0.00335880
H        1.06454728      -2.28208804      -3.59365081       0.00229233      -0.00467431      -0.00173477
H       -1.90242604      -1.46588850      -3.67451393      -0.00211794      -0.00269310      -0.00097169
H        0.18682185       0.20404609      -5.15950949       0.00098448      -0.00221234      -0.00116999
H        0.80543241       2.65017951      -3.29828999      -0.00150758      -0.00261194      -0.00028749
H       -0.66827227       2.25182281      -1.09045676      -0.00102258       0.00233382       0.00402918
H        2.26892183      -1.27585039      -1.03366722       0.00040490       0.00260750       0.00760535
H       -0.65778803      -2.51216250      -1.17569768       0.00091731       0.00012684       0.00193036
H       -2.52782495       0.06742156      -1.12247704      -0.00164713      -0.00300751      -0.00289303
H       -1.99188911       1.62510054      -3.45996915       0.00232050      -0.00304613       0.00035115
