45
Properties=species:S:1:pos:R:3:forces:R:3 charge=-1 spin=1 energy=-242.23040771484375 free_energy=-242.23040771484375 stress="-8.350986746563649e-08 3.318610808378253e-08 3.904798617782035e-08 3.318610808378253e-08 -5.4225843371114024e-08 1.8479910934843247e-08 3.904798617782035e-08 1.8479910934843247e-08 -1.9824486230390903e-07" pbc="F F F"
C       -1.11537478       0.90489618       1.55400000      -0.24902561       0.09893087       0.21687229
B       -1.51784438       0.16026994       3.01920071      -0.00030089      -0.00081368       0.00044456
B       -0.46558317      -1.25475509       3.06736361       0.00766886      -0.00295492       0.00077769
B        1.22033760      -0.66451714       3.05987306      -0.00119433       0.00078106      -0.00200071
B       -0.03964560       0.23008215       3.96837317       0.00514865       0.00134546       0.00111269
B       -0.51552316       1.59423187       3.02062975       0.00379938      -0.00018595       0.00316086
C        0.38525337       1.44306266       1.56400000       0.06882536       0.00965655       0.15910368
B       -1.19836422      -0.77632346       1.51335550      -0.00132951       0.00400985       0.00031126
B        0.50037517      -1.32994816       1.56527037       0.00152580      -0.00141707       0.00456578
B        1.48838293       0.17809569       1.52513601       0.00519449      -0.00471321       0.00330570
B        1.16536330       1.09901777       3.01701577      -0.00065312      -0.00123193       0.00209804
C        1.14300000       0.92400000      -1.55300000       0.14433834      -0.01114890      -0.16740781
B        1.61514676       0.17162771      -2.98766472       0.00233264       0.00076438       0.00270411
B        0.66803843      -1.31650489      -3.01135083      -0.00544983      -0.00546916       0.00142863
B       -1.05697190      -0.85824842      -3.05327143      -0.00093715       0.00137226       0.00399565
B        0.14849266       0.11216935      -3.95543990      -0.00407489       0.00226057      -0.00169671
B        0.51030672       1.52598443      -3.03156557      -0.00497667      -0.00098810      -0.00108791
C       -0.40000000       1.32300000      -1.56800000      -0.16809860       0.22020042      -0.27809542
B        1.33180480      -0.74391176      -1.45663479       0.00192139       0.00243019      -0.00020702
B       -0.31966515      -1.43097172      -1.52481677      -0.00173979      -0.00174323      -0.00222342
B       -1.42807894      -0.01455211      -1.54371284      -0.00569177      -0.00402614      -0.00566284
B       -1.13065926       0.90559592      -3.03685182       0.00336125       0.00149754       0.00245087
Co       0.00000000       0.00000000       0.00000000       0.19094315      -0.29403409       0.05905044
H       -1.88704728       1.50591716       1.06202620      -0.00085466       0.00044437      -0.00188316
H       -2.63819229       0.22675976       3.41979092      -0.00303295       0.00056494      -0.00036797
H       -0.79068879      -2.25653001       3.62963095      -0.00098538       0.00157003      -0.00001709
H        2.09977378      -1.24511934       3.62084213      -0.00497720       0.00366000      -0.00258630
H       -0.04266111       0.24703594       5.15802446      -0.00035785       0.00083605      -0.00195388
H       -0.89699502       2.67204430       3.34048962      -0.00024827      -0.00022992      -0.00101373
H        0.60419499       2.39678465       1.07279907      -0.00059964      -0.00485349       0.00242378
H       -2.17001308      -1.31492620       1.07155991       0.00106370      -0.00260776      -0.00187918
H        0.87489334      -2.39978989       1.18301680       0.00423192       0.00138113       0.00322800
H        2.56744335       0.34071539       1.03820565      -0.00271751      -0.00011911      -0.00543908
H        1.99892298       1.84592882       3.42672631      -0.00133403      -0.00136022      -0.00176035
H        1.85649953       1.58828881      -1.05656876       0.00113724       0.00119409       0.00170306
H        2.73285852       0.30479995      -3.37838321       0.00444353      -0.00076290       0.00109069
H        1.07792549      -2.30389539      -3.54247100       0.00302450      -0.00132163       0.00150870
H       -1.87701311      -1.51447142      -3.62077350       0.00472382       0.00191879       0.00227537
H        0.16854137       0.10659421      -5.14503026       0.00202920      -0.00142641      -0.00028704
H        0.80479253       2.62561217      -3.36899902       0.00097670      -0.00245929       0.00000179
H       -0.70006081       2.27377760      -1.11356984       0.00180796      -0.00754141      -0.00491555
H        2.32697393      -1.20054620      -0.97985482      -0.00247193      -0.00128917       0.00616319
H       -0.60850122      -2.51819932      -1.11857653      -0.00394960       0.00049935      -0.00324650
H       -2.52878863       0.07524208      -1.08436806       0.00315314       0.00107457       0.00366630
H       -2.00681053       1.58920760      -3.46823492       0.00334987      -0.00369513       0.00028884
