45
Properties=species:S:1:pos:R:3:forces:R:3 charge=-1 spin=1 energy=-54314.55007268685 free_energy=-54314.55007268685 stress="0.9230442643165588 0.03148425742983818 -0.9360405206680298 0.03148425742983818 0.6182873249053955 -0.04997354745864868 -0.9360405206680298 -0.04997354745864868 1.8024944067001343" pbc="F F F"
C       -1.30646102      -0.59670563       1.55400000       0.15405428       0.10329492      -0.22747052
B       -0.81572892      -1.28705920       3.00896735      -0.00150246       0.00113223      -0.00191301
B        0.91760642      -0.95978201       3.10394557       0.01293349       0.01565965      -0.00194438
B        1.13241246       0.79755352       3.10288570       0.00336078       0.01147811      -0.00892960
B       -0.23916734       0.07334498       3.98797136      -0.00017217       0.00271315      -0.00769960
B       -1.68292134       0.25266959       2.96556810      -0.00413203       0.00074998      -0.00390671
C       -1.12127100       0.98671240       1.56400000       0.18484555      -0.38862488      -0.24917120
B        0.19134359      -1.41441728       1.53802873       0.00410395       0.00714375      -0.00424070
B        1.42336261      -0.13293881       1.59792953      -0.00058696       0.01133374      -0.00344388
B        0.51410493       1.39696764       1.54562794      -0.00103819       0.00726957      -0.01192902
B       -0.46587466       1.54156971       3.02180180      -0.00217445       0.00150347      -0.00845591
C        1.14300000       0.92400000      -1.55300000      -0.43322918      -0.33271548       0.31931540
B        1.60166160       0.15748314      -2.97278785       0.00521525       0.00099990       0.00407068
B        0.63356314      -1.31741113      -3.03856279      -0.01543841      -0.00716940       0.00211662
B       -1.07234032      -0.84869874      -3.08737075      -0.00887199       0.00120129       0.00809989
B        0.13638967       0.12238459      -3.97149032       0.00382559      -0.00074976       0.00789251
B        0.50904705       1.54834258      -2.97751695       0.00340207       0.00206925       0.00371394
C       -0.40000000       1.32300000      -1.56800000       0.13485409       0.15079118      -0.01317828
B        1.29987770      -0.77382686      -1.46931231      -0.00904889       0.00228398       0.00637006
B       -0.35249281      -1.43254015      -1.54837137      -0.00954278       0.00314779       0.00061713
B       -1.42803654      -0.01557677      -1.56224938      -0.00526858       0.00535168       0.00986944
B       -1.14413502       0.91576656      -3.04190289       0.00249944      -0.00020136       0.00821249
Co       0.00000000       0.00000000       0.00000000      -0.00363112       0.33596846       0.16367882
H       -2.18004508      -0.98160686       1.05521445      -0.00448160       0.00030346      -0.01722401
H       -1.38819879      -2.24508989       3.40101654       0.00177800      -0.00216978       0.00396685
H        1.64584726      -1.70633007       3.66573641      -0.00335132       0.00905119       0.01030933
H        2.02535337       1.34181729       3.66108405      -0.00862881       0.00897680       0.00827011
H       -0.32848696       0.08146862       5.17076663      -0.00876925       0.00556693      -0.00860453
H       -2.81477351       0.39013326       3.27756473      -0.00411985       0.00140005      -0.00278236
H       -1.88010055       1.56776799       1.06365285       0.00764107       0.00200485      -0.02011402
H        0.26849173      -2.52560900       1.13591736       0.01755440       0.01550293      -0.02464744
H        2.55453575      -0.26106360       1.26240613       0.00392056       0.01511191      -0.03879676
H        0.85366166       2.43701667       1.07611120       0.00841522      -0.00003823      -0.03159774
H       -0.78608234       2.61084294       3.41820429      -0.00562519      -0.00061934      -0.00721933
H        1.81528459       1.59285010      -1.04380823       0.00379988       0.00757512       0.01769704
H        2.71050136       0.30350469      -3.35763041       0.00885973      -0.00388822       0.00190831
H        1.05406612      -2.29042109      -3.56710995       0.00021947       0.00286751      -0.00434004
H       -1.90591092      -1.47752320      -3.64854881       0.00201168       0.00790814      -0.00990395
H        0.17872458       0.18071265      -5.15548173       0.00812862       0.00522962       0.00855055
H        0.80085962       2.64497231      -3.30917297       0.00430422       0.00119779       0.00224814
H       -0.65894510       2.26595427      -1.11080590      -0.00559328      -0.00602125       0.01807336
H        2.28310309      -1.26863556      -1.03238879      -0.02382799      -0.00285857       0.03531615
H       -0.66427697      -2.51960015      -1.18872879      -0.01899869       0.00435533       0.03792119
H       -2.52761680       0.08944334      -1.11885072      -0.00647371      -0.00605774       0.02794882
H       -1.99929327       1.62034393      -3.46132490       0.00877976      -0.00002932       0.00134616
