45
Properties=species:S:1:pos:R:3:forces:R:3 charge=-1 spin=1 energy=-242.3123321533203 free_energy=-242.3123321533203 stress="2.8567114895849954e-08 -9.346401874665844e-09 1.3261220566107568e-08 -9.346401874665844e-09 5.78191503564085e-08 3.5666356978936165e-08 1.3261220566107568e-08 3.5666356978936165e-08 7.184649319924574e-08" pbc="F F F"
C       -1.47562762       0.10146906       1.59192493      -0.00570238       0.01121521       0.00800613
B       -1.37923760      -0.72298696       3.05008763       0.00299963      -0.00722776       0.01262468
B        0.29842852      -1.26898069       3.11412188       0.00541943      -0.00085658       0.00131023
B        1.33786301       0.18106094       3.11591413      -0.00049436       0.00095467      -0.00952857
B       -0.22138107       0.19475294       4.00480354       0.00643457      -0.00222392       0.00089985
B       -1.38419101       1.02831916       3.03375168      -0.00172505      -0.00105632       0.01117346
C       -0.53906721       1.40705551       1.59119845      -0.01348239      -0.01714820      -0.01001185
B       -0.54750763      -1.29453473       1.52850388      -0.00557151       0.01532510      -0.03185396
B        1.16583018      -0.78545783       1.63600000      -0.06593370       0.02491245      -0.08701687
B        1.08410863       1.00188824       1.55657485      -0.01942945      -0.02591217      -0.03298811
B        0.27927322       1.58914133       3.04417495       0.00128901      -0.00312610       0.00538674
C        1.14276694       0.96358778      -1.58983133      -0.01354230       0.01523930      -0.00293890
B        1.62167372       0.24671490      -3.02841135       0.00165736      -0.00901206      -0.01382180
B        0.69793036      -1.25439917      -3.08144655      -0.00019054      -0.00430433       0.00057336
B       -1.03180500      -0.82235167      -3.11190386       0.00151558      -0.00234655       0.00842536
B        0.15785114       0.18455349      -4.00234620      -0.00149837      -0.00888290      -0.00189215
B        0.49888871       1.58733986      -3.05014695      -0.00515232       0.00057833      -0.01627787
C       -0.41988947       1.36007256      -1.61953889       0.00235632      -0.00639570      -0.00070766
B        1.32722940      -0.69621880      -1.48206281      -0.01019239       0.02085134       0.03494945
B       -0.27500000      -1.43300000      -1.61500000      -0.09281198       0.16847736       0.13612895
B       -1.39774715      -0.00813619      -1.57813892       0.01651692      -0.00666088       0.01531717
B       -1.13828075       0.94096746      -3.07299300      -0.00154868      -0.00535046      -0.00622298
Co       0.00000000       0.00000000       0.00000000       0.20175943      -0.17418894      -0.02846727
H       -2.43776766       0.14391334       1.07546656       0.00385220       0.01971053      -0.00789084
H       -2.33173090      -1.31939795       3.44716638      -0.00275220      -0.00774078       0.00111869
H        0.59109007      -2.27312682       3.68992372       0.00160316      -0.00744283      -0.00582375
H        2.37869937       0.22210277       3.69919495      -0.00115776       0.00300388      -0.01086064
H       -0.25473991       0.22221679       5.19406295       0.00669839      -0.00730820       0.00150557
H       -2.31527344       1.69948897       3.33776409      -0.00514743      -0.00358003       0.00516354
H       -0.90110481       2.30546454       1.08285298      -0.01282745      -0.00960974       0.00295042
H       -1.02099786      -2.30719010       1.10437136       0.01188418       0.00148889      -0.01176102
H        2.08830285      -1.44669166       1.25946134      -0.01610258       0.01391031      -0.00646051
H        1.88265027       1.75680032       1.08344778       0.00083254      -0.00598729       0.02624422
H        0.53045018       2.68344001       3.44462269      -0.00301221       0.00341219      -0.00203028
H        1.84235698       1.62204177      -1.07029645      -0.02198122       0.02565281      -0.00076166
H        2.73929850       0.39446209      -3.41487760       0.01084554       0.00020553       0.00713848
H        1.13099847      -2.21548863      -3.64215564       0.01275018      -0.00659724       0.01217760
H       -1.84781223      -1.47122894      -3.69365299       0.00539219      -0.00291897       0.00812384
H        0.17762028       0.21050695      -5.19195845       0.00448924      -0.01375382      -0.00208509
H        0.78283236       2.69463542      -3.37105960       0.00354654       0.00222698      -0.00694400
H       -0.72981021       2.29290585      -1.13917480       0.00799144      -0.00323252      -0.00659464
H        2.33773744      -1.15174418      -1.03650080      -0.01271043       0.00081004       0.01767535
H       -0.56185462      -2.52139486      -1.21240090       0.00020572       0.02199872       0.01246165
H       -2.50561715       0.04919004      -1.12770556       0.00309005      -0.00231944      -0.02003095
H       -2.03050952       1.60907626      -3.49615618      -0.00016253      -0.00478950      -0.00638340
