45
Properties=species:S:1:pos:R:3:forces:R:3 charge=-1 spin=1 energy=-54314.5984754731 free_energy=-54314.5984754731 stress="1.2296510934829712 0.29110750555992126 -1.3687336444854736 0.29110750555992126 0.5087165832519531 -0.5153771042823792 -1.3687336444854736 -0.5153771042823792 1.9504940509796143" pbc="F F F"
C       -1.05812608      -0.97121944       1.55400000       0.09222929       0.18665832      -0.30781671
B       -0.37697328      -1.47556158       3.00717132       0.00519344       0.00630363      -0.00266619
B        1.17153302      -0.62425199       3.10164376      -0.00172150      -0.01255143      -0.00554231
B        0.83087013       1.11379685       3.09939889       0.01208411      -0.00533211       0.00208377
B       -0.25040281      -0.00184180       3.98371594      -0.00106789       0.00830417      -0.00499252
B       -1.67959043      -0.27941105       2.96310200       0.01141015       0.00598630       0.00088772
C       -1.37130299       0.59192746       1.56400000       0.28475305      -0.22490875      -0.29682285
B        0.61948312      -1.28330468       1.53508024      -0.02288753      -0.01455276       0.00856637
B        1.39562167       0.31785999       1.59563169      -0.01912319      -0.01084516       0.01798672
B        0.05857376       1.49114515       1.54067187       0.01295540       0.01361237       0.01335615
B       -0.91971788       1.32374224       3.01656238       0.00740945       0.00463044      -0.01087701
C        1.14300000       0.92400000      -1.55300000      -0.45098543      -0.28384584       0.42842007
B        1.60344183       0.15571756      -2.96962347      -0.00587772      -0.00783276       0.00720859
B        0.63094794      -1.32000475      -3.03517942       0.01827370      -0.00281657       0.01303862
B       -1.07556470      -0.84913782      -3.08469462       0.01064170      -0.01534699      -0.00431015
B        0.13741626       0.12155162      -3.96719431      -0.00308443      -0.00236585       0.00481042
B        0.51012162       1.54836516      -2.97524622      -0.00513214      -0.01131994      -0.00055292
C       -0.40000000       1.32300000      -1.56800000       0.05599802       0.16979589       0.00981736
B        1.29696165      -0.77274734      -1.46428289       0.01855675       0.01918711      -0.00424677
B       -0.35657979      -1.43303627      -1.54682714       0.01785574       0.01757890      -0.01556851
B       -1.43124890      -0.01611477      -1.55836596      -0.00632363      -0.01439776      -0.01966875
B       -1.14378045       0.91519190      -3.03779684      -0.00268413      -0.00603103       0.00517320
Co       0.00000000       0.00000000       0.00000000      -0.09513399       0.22835059       0.15172753
H       -1.76815295      -1.60441842       1.04719297       0.00874374      -0.00238240      -0.00614896
H       -0.62454064      -2.56336237       3.40247676       0.01157223       0.01348529      -0.00538796
H        2.09034827      -1.11010137       3.67050437       0.00336322       0.00860252      -0.00423861
H        1.50703084       1.90629548       3.66512641      -0.00156543       0.00873179      -0.00516756
H       -0.34167245      -0.02235726       5.16623825       0.00615333       0.00677011      -0.00663785
H       -2.79863889      -0.49850960       3.27581117       0.01112500       0.00264658      -0.00781589
H       -2.26608267       0.91102341       1.05335559       0.02456961      -0.00149048       0.01409894
H        1.04047884      -2.31005930       1.11994971      -0.01721175      -0.00464299      -0.00844808
H        2.50673268       0.54682423       1.23837341       0.00624983      -0.00920116      -0.03011562
H        0.06416411       2.58140106       1.06050503       0.00913887      -0.01229032       0.02914895
H       -1.55688289       2.23927920       3.41432702      -0.00194211       0.00435175      -0.00793239
H        1.81226015       1.59180736      -1.03643529      -0.00100838      -0.00916575       0.00440348
H        2.71291623       0.30098708      -3.35580355      -0.01455933      -0.01073957       0.01280782
H        1.05391547      -2.28957347      -3.56879686      -0.00339929      -0.00381044       0.00819188
H       -1.90644638      -1.47447984      -3.65376582      -0.00427923       0.00047195       0.00233810
H        0.18247745       0.18252378      -5.15095458      -0.00006510      -0.00781324       0.00672110
H        0.80281295       2.64469483      -3.30770957      -0.00017041      -0.01064029       0.00653618
H       -0.66102611       2.26032997      -1.10148904      -0.00012102      -0.02305829      -0.01730586
H        2.27253866      -1.26853101      -1.01050178       0.00914215       0.01675270       0.01653931
H       -0.67174043      -2.51433218      -1.16514165       0.00791951      -0.00404997       0.03467818
H       -2.52822749       0.08492717      -1.10474021       0.01597574      -0.01377755      -0.02758291
H       -1.99562709       1.62076392      -3.46071621      -0.00297059       0.00298894       0.00130585
