45
Properties=species:S:1:pos:R:3:forces:R:3 charge=-1 spin=1 energy=-54314.399937646565 free_energy=-54314.399937646565 stress="-0.3262740969657898 0.18094196915626526 0.4114799499511719 0.18094196915626526 -0.490878164768219 0.26161378622055054 0.4114799499511719 0.26161378622055054 -0.14511923491954803" pbc="F F F"
C       -1.44839083       0.08414152       1.50264864      -0.01427677       0.01514932      -0.00233478
B       -1.38654203      -0.73202603       2.97619388      -0.00897290       0.00196577      -0.01282038
B        0.29041938      -1.25679002       3.12190299       0.00141333       0.00688577       0.03283017
B        1.31217460       0.18831870       3.12801534       0.01007215       0.02252821      -0.01718710
B       -0.26213849       0.21783002       3.96590224      -0.00403366      -0.03661691       0.02350973
B       -1.41836124       1.03118255       2.90093163       0.00720910       0.02419101      -0.01456476
C       -0.53535262       1.37076937       1.50405842      -0.00157829       0.02966729       0.03805378
B       -0.51972368      -1.33949779       1.53278273      -0.02112950       0.00292296       0.00936509
B        1.16583018      -0.78545783       1.63600000       0.10345075      -0.21798551      -0.27615905
B        1.10467685       0.97890315       1.54788350      -0.00039415       0.00274373       0.00677038
B        0.25894273       1.59425498       2.98617957      -0.00805193       0.00974302      -0.03004379
C        0.98734745       1.02269578      -1.53417772       0.00038442       0.01779272       0.00177436
B        1.52347993       0.35494760      -2.98600949       0.00938649      -0.00006773       0.01326975
B        0.69208692      -1.19592332      -3.09696720      -0.00125181       0.00358031      -0.03076412
B       -1.04881353      -0.87716162      -3.12503443      -0.02339243       0.01217140       0.01850319
B        0.06277865       0.22128830      -3.98448353       0.03266343      -0.02232204      -0.02166991
B        0.31401487       1.63986462      -2.95618813      -0.02639270       0.01419865       0.01164314
C       -0.56449702       1.30420182      -1.55601802      -0.01829637       0.02158841      -0.03779815
B        1.31506405      -0.64521657      -1.51489396       0.01527981       0.02042405      -0.00987281
B       -0.27500000      -1.43300000      -1.61500000       0.09683762      -0.13813011       0.35132146
B       -1.46121088      -0.12382360      -1.56666711      -0.00141569      -0.00056975      -0.00402601
B       -1.27865880       0.86764083      -3.03162235      -0.00014377       0.01211578       0.03077144
Co       0.00000000       0.00000000       0.00000000      -0.20283462       0.32609484      -0.08967265
H       -2.39005121       0.15266526       0.98638653      -0.00613323      -0.01186574       0.00957223
H       -2.35744302      -1.29638355       3.34718039      -0.00381649      -0.00598233       0.01208231
H        0.57123573      -2.24505850       3.70892701      -0.00303049      -0.01867484       0.01119396
H        2.34097550       0.26235274       3.71035482      -0.00274039      -0.01311074       0.01668880
H       -0.36940911       0.29502088       5.14258865      -0.00680051      -0.00329616       0.04425026
H       -2.35567254       1.70480291       3.15709551      -0.00536148      -0.00278330       0.01220787
H       -0.91631495       2.25269844       1.01359707      -0.00020345      -0.02399937       0.01035627
H       -0.96260950      -2.35300026       1.11123435      -0.00441319      -0.01146521       0.01665491
H        2.10075216      -1.44570102       1.32562812       0.00213587       0.00144948       0.01481713
H        1.91466362       1.72275875       1.09967432       0.00498917       0.01864465       0.01969568
H        0.46412987       2.70321137       3.34838006      -0.00003932      -0.01039009       0.01863479
H        1.61012799       1.74501216      -1.03525783       0.00851111      -0.00814523      -0.00822093
H        2.61490842       0.61872077      -3.35741958       0.00823002      -0.00132988      -0.00903198
H        1.18724311      -2.11388941      -3.65579083       0.01716897      -0.01122703      -0.01034111
H       -1.83374331      -1.55767195      -3.69416520       0.01350172      -0.00753404      -0.01751894
H        0.09373563       0.31906016      -5.16418039       0.01104133       0.00283572      -0.04297187
H        0.51483880       2.76892141      -3.24350781       0.00872653       0.00429124      -0.00986129
H       -0.91288141       2.21496893      -1.09487849       0.01641258      -0.01761278      -0.00834044
H        2.33805184      -1.04799718      -1.07597585       0.00936346      -0.00772361      -0.01498497
H       -0.48400745      -2.54870181      -1.27269928      -0.00318034      -0.00155536      -0.01546493
H       -2.56406684      -0.14556068      -1.12710563      -0.01953527       0.00890263      -0.02184105
H       -2.19864015       1.50661790      -3.41711817       0.01064072      -0.00749929      -0.01847555
