45
Properties=species:S:1:pos:R:3:forces:R:3 charge=-1 spin=1 energy=-242.29678344726562 free_energy=-242.29678344726562 stress="-7.91602872141084e-08 -2.458302450492056e-09 6.072107794352632e-08 -2.458302450492056e-09 -5.115155587986919e-08 6.430862242723379e-08 6.072107794352632e-08 6.430862242723379e-08 -1.8751217112367158e-07" pbc="F F F"
C       -1.41880032      -0.22339127       1.55400000      -0.26387978      -0.08653681       0.19154675
B       -1.14710477      -1.01367037       3.02708033       0.00334778      -0.00201091       0.00445161
B        0.61028118      -1.17146426       3.08958200      -0.00216818       0.00091657      -0.00017789
B        1.29503360       0.47702320       3.08527595      -0.00269283       0.00195329       0.00098123
B       -0.22256719       0.13657284       3.98086065      -0.00204638       0.00456754      -0.00325856
B       -1.54707438       0.68840653       3.01920380       0.00355168       0.00434053       0.00639102
C       -0.81461973       1.25189644       1.56400000       0.03711531       0.05301550       0.14455125
B       -0.21730393      -1.39522912       1.51476026       0.00449674       0.00043309      -0.00103018
B        1.33300361      -0.50210378       1.60374237      -0.00305414      -0.00064419      -0.00110783
B        0.86271141       1.22410502       1.53766483      -0.00195993      -0.00095552       0.00203870
B       -0.05544125       1.61084091       3.02408762      -0.00389562      -0.00175981      -0.00144184
C        1.14300000       0.92400000      -1.55300000       0.13902266       0.02085102      -0.10708797
B        1.62125143       0.17608623      -2.98919135       0.00066507      -0.00484229      -0.00286936
B        0.66866562      -1.31087345      -3.01897697       0.00176644       0.00258856       0.00060608
B       -1.05446314      -0.84768779      -3.07027035       0.00131516       0.00252819      -0.00150501
B        0.16054819       0.12296548      -3.96306612      -0.00153077       0.00327930       0.00250735
B        0.52159688       1.53262022      -3.03393249      -0.00571689       0.00078089      -0.00559425
C       -0.40000000       1.32300000      -1.56800000      -0.15518743       0.19675317      -0.32962924
B        1.31736869      -0.74053352      -1.44514918      -0.00470218      -0.00433736       0.00009318
B       -0.33508535      -1.43287564      -1.55136762       0.00228377       0.00162780       0.00123075
B       -1.42671807      -0.01383616      -1.55684285       0.00189829       0.00141391      -0.00142761
B       -1.12197221       0.91720668      -3.04548008       0.00310083       0.00190794       0.00157069
Co       0.00000000       0.00000000       0.00000000       0.24379739      -0.19842398       0.10505783
H       -2.37253727      -0.39286400       1.04539357       0.00585375      -0.00039929       0.00258286
H       -1.94328029      -1.80978444       3.41800398      -0.00247805       0.00017604      -0.00079983
H        1.13021527      -2.08446629       3.65647080      -0.00213054       0.00119950       0.00129928
H        2.30585403       0.74967044       3.65758263      -0.00054872       0.00141060       0.00211830
H       -0.24684892       0.14875141       5.17072726      -0.00233704       0.00111777      -0.00409153
H       -2.60755563       1.12499655       3.32644059       0.00116387       0.00027445      -0.00397706
H       -1.37395112       2.04675692       1.06158652       0.00072252      -0.00068407      -0.00083526
H       -0.45166787      -2.48951711       1.09622319       0.00068228       0.00160317       0.00113653
H        2.38097945      -0.94181917       1.23533529      -0.00081065       0.00146442       0.00086764
H        1.47426662       2.14053835       1.07251758      -0.00048917      -0.00295438      -0.00389126
H       -0.05959337       2.73318533       3.42518760       0.00006483      -0.00319496      -0.00235242
H        1.84717335       1.58552726      -1.04131902      -0.00179449      -0.00416341      -0.00282657
H        2.74444812       0.29884185      -3.36789999       0.00293770       0.00229984       0.00102732
H        1.08522002      -2.29725309      -3.54689779       0.00126601       0.00262119      -0.00070886
H       -1.87333515      -1.49656330      -3.64662544       0.00012891       0.00107905      -0.00296665
H        0.18589901       0.11745174      -5.15298004       0.00156504       0.00254356       0.00232872
H        0.82094290       2.63245074      -3.36567103      -0.00002183       0.00107321       0.00351042
H       -0.69696030       2.27168088      -1.10995116      -0.00029077      -0.00088161       0.00083300
H        2.31235586      -1.21244441      -0.98451586      -0.00258477       0.00050410       0.00068510
H       -0.62795155      -2.51802487      -1.14627612      -0.00040350       0.00058952      -0.00249836
H       -2.53792895       0.07440637      -1.12112719       0.00138436      -0.00175945       0.00122748
H       -1.99537283       1.60461065      -3.47593585       0.00259353      -0.00136580       0.00143471
