45
Properties=species:S:1:pos:R:3:forces:R:3 charge=-1 spin=1 energy=-242.2886199951172 free_energy=-242.2886199951172 stress="-4.803349895610154e-08 9.760727337493336e-09 -5.189518859083364e-08 9.760727337493336e-09 -9.521654220634446e-08 5.4691415840579793e-08 -5.189518859083364e-08 5.4691415840579793e-08 -2.1782015835469792e-07" pbc="F F F"
C        1.14785048       0.86332918       1.55400000       0.09480709       0.15922713       0.30569494
B        0.53056211       1.42375327       3.02654230       0.00185460       0.00180966      -0.00302458
B       -1.10045817       0.74825180       3.08087145       0.00117204       0.00006233      -0.00299194
B       -0.93824983      -1.02790276       3.05741437      -0.00026992      -0.00205189      -0.00228399
B        0.24024644      -0.03838841       3.97282049      -0.00085470       0.00014105      -0.00206359
B        1.67699615       0.09691846       3.02625995       0.00500384       0.00022986      -0.00185703
C        1.30699631      -0.72291815       1.56400000       0.00527820      -0.08156601       0.10976976
B       -0.46221471       1.35946300       1.54679443       0.00638357      -0.00299251      -0.00114807
B       -1.41731566      -0.15610057       1.57635186      -0.00060263      -0.00112415      -0.00666836
B       -0.19716828      -1.46219894       1.48029811      -0.00021850      -0.00740767      -0.00200210
B        0.78588805      -1.40583121       3.01531647       0.00118253      -0.00254857      -0.00234406
C        1.14300000       0.92400000      -1.55300000       0.08039586      -0.02120271      -0.21771260
B        1.61587398       0.19654122      -2.99974093       0.00022293       0.00249216       0.00232506
B        0.67224453      -1.29422448      -3.04870561      -0.00086290       0.00275593       0.00159319
B       -1.05231575      -0.83697353      -3.07694189      -0.00206167      -0.00050470       0.00172293
B        0.14346371       0.14962099      -3.97111815      -0.00060831      -0.00010595       0.00117964
B        0.50284521       1.54975442      -3.02846269       0.00169422       0.00596878       0.00176384
C       -0.40000000       1.32300000      -1.56800000      -0.15842123       0.30112821      -0.24897680
B        1.34232980      -0.74231255      -1.50767616      -0.00408372       0.00664099      -0.00362234
B       -0.30822912      -1.43474819      -1.56942459      -0.00091131      -0.00097060       0.00559855
B       -1.40376427      -0.02475572      -1.51935949      -0.00694892      -0.00072002       0.00333547
B       -1.13116640       0.92419817      -3.04386868      -0.00417943       0.00233150       0.00210182
Co       0.00000000       0.00000000       0.00000000      -0.03008021      -0.38157928       0.06308649
H        1.93082821       1.46163059       1.07919526       0.00558733       0.00292651       0.00348345
H        0.87599765       2.48886661       3.43463103      -0.00117534      -0.00087970       0.00051332
H       -1.98564578       1.30190463       3.65826810      -0.00527275       0.00263909       0.00128628
H       -1.71041960      -1.75416853       3.60619159      -0.00275473      -0.00041161       0.00121303
H        0.25965275      -0.04497902       5.16231135      -0.00070080       0.00047850       0.00635684
H        2.81638252       0.20270572       3.34318269      -0.00623402      -0.00005603       0.00025283
H        2.16543121      -1.16635088       1.05549426       0.00849452      -0.00501111       0.00094873
H       -0.77057240       2.42506361       1.09784653       0.00238068       0.00464105       0.00108132
H       -2.54165414      -0.26234948       1.18370574       0.00482123       0.00305763      -0.00299165
H       -0.29702075      -2.56867901       1.04272979       0.00102562       0.00591939      -0.00122408
H        1.29593469      -2.41044288       3.40416312      -0.00158359       0.00317676       0.00112019
H        1.85195592       1.59752378      -1.06358146       0.00472818       0.00573540      -0.00336741
H        2.73202482       0.34414200      -3.38993924      -0.00309727       0.00069395      -0.00219481
H        1.08292084      -2.26878308      -3.60059305      -0.00020606      -0.00356853      -0.00384340
H       -1.88008784      -1.48338467      -3.64404048      -0.00222869      -0.00148533      -0.00113255
H        0.16680342       0.15733075      -5.16053157      -0.00198255       0.00164539      -0.00614220
H        0.79709065       2.65456146      -3.34885001      -0.00281167      -0.00493842       0.00055990
H       -0.70449716       2.25631872      -1.08583398      -0.00325682       0.00553419      -0.00100783
H        2.32922719      -1.22108190      -1.03421229       0.00741582      -0.00218099      -0.00551646
H       -0.60443222      -2.52490100      -1.18147045       0.00283457       0.00555326       0.00653722
H       -2.51834477       0.06595961      -1.09680597       0.00566847      -0.00249645      -0.00035885
H       -2.02033903       1.60279507      -3.45570603       0.00045621      -0.00098674       0.00094971
