45
Properties=species:S:1:pos:R:3:forces:R:3 charge=-1 spin=1 energy=-54314.476584451375 free_energy=-54314.476584451375 stress="-0.25550734996795654 -0.041566118597984314 -0.18666578829288483 -0.041566118597984314 0.02903430350124836 0.2868202328681946 -0.18666578829288483 0.2868202328681946 2.025033712387085" pbc="F F F"
C        0.57253656       1.34172752       1.51721632      -0.00496432      -0.01933232       0.00151949
B       -0.20027972       1.56852391       3.00346765      -0.01123572      -0.00132625      -0.01660750
B       -1.28635643       0.18010280       3.14083582      -0.00031488      -0.00480499      -0.01148438
B       -0.29324329      -1.28671882       3.11699700       0.01279568      -0.00599434      -0.02890863
B        0.29274748       0.16996043       3.97291525      -0.00006448      -0.00380465      -0.01384593
B        1.45973558       0.97143856       2.90537946       0.00675899       0.01068521       0.00369350
C        1.46119797       0.04108652       1.49177639      -0.00839093      -0.01177537       0.00857995
B       -1.07689862       0.97533053       1.56815544      -0.02954481       0.00989461      -0.02337275
B       -1.15947093      -0.79481517       1.63600000      -0.19208558      -0.12646309      -0.25175068
B        0.51875367      -1.36707810       1.51801183      -0.00286941       0.00397748      -0.02267089
B        1.39126419      -0.79336707       2.97027152       0.01161933      -0.00007708      -0.01862312
C        1.03398091       0.99868852      -1.52382280      -0.02091411      -0.01076734      -0.00835199
B        1.54852825       0.34643336      -2.99465109      -0.00182052      -0.01187880       0.01303535
B        0.68202899      -1.19033987      -3.11640646      -0.00577625      -0.00327450       0.01336082
B       -1.05293133      -0.83358118      -3.10767234      -0.01229982       0.00615938       0.02949277
B        0.07474482       0.25368446      -3.97239374      -0.00825563      -0.00372844       0.01306633
B        0.36263274       1.65425821      -2.92477941       0.00250511       0.00923250      -0.00997890
C       -0.50960326       1.32408478      -1.51120506      -0.00970508      -0.01427928      -0.01366018
B        1.32342783      -0.66896122      -1.54651839       0.02111818      -0.01827623       0.02528461
B       -0.27500000      -1.43300000      -1.61500000      -0.07882293       0.01047317       0.27415237
B       -1.44764204      -0.09221506      -1.52092184       0.00419549      -0.00276332       0.02163151
B       -1.24189291       0.91420085      -2.98690568      -0.00848174       0.00716726       0.01709525
Co       0.00000000       0.00000000       0.00000000       0.37318686       0.18590800       0.00690355
H        0.96951734       2.21535466       1.02209756      -0.02008598      -0.00899768      -0.00427226
H       -0.37527292       2.67667515       3.38357385      -0.00629381      -0.00899881       0.00064985
H       -2.30795981       0.26680470       3.73503835       0.00700002      -0.00741095      -0.00900133
H       -0.58472411      -2.27516331       3.70234278       0.01314578       0.00745920      -0.01576899
H        0.41173032       0.23160555       5.15156989       0.00620862      -0.00349287      -0.01336703
H        2.42039067       1.60911710       3.16575433       0.00986134       0.01388383      -0.00183254
H        2.40647492       0.08725179       0.97486144      -0.00545204      -0.00856975      -0.00697849
H       -1.87155674       1.74447377       1.13182277      -0.00434702       0.00007786      -0.02583206
H       -2.10686024      -1.43629629       1.31846428       0.00399225       0.00729077      -0.01850176
H        0.94250332      -2.38149192       1.08016622      -0.00518804      -0.00487925      -0.02092868
H        2.35139408      -1.38114150       3.33512108       0.00794219       0.00513742      -0.01027938
H        1.68791388       1.70511716      -1.03454463      -0.00554231      -0.02032056      -0.00120301
H        2.64331061       0.60164350      -3.36869153      -0.01162425      -0.00785856      -0.00423189
H        1.16011377      -2.10739204      -3.69517484      -0.01193714       0.00429634       0.00875872
H       -1.85163692      -1.48518318      -3.69261162       0.00043986       0.01144347       0.01939801
H        0.09503636       0.37068667      -5.15271376      -0.01206433       0.00118003       0.01329403
H        0.58799978       2.78141598      -3.20037309       0.00221716       0.01603861      -0.00307595
H       -0.83107161       2.22520048      -1.01322903      -0.00751556      -0.00931435       0.00324062
H        2.33505649      -1.10264015      -1.09756093       0.00050301       0.00308484       0.02589003
H       -0.50781508      -2.54639640      -1.27694982       0.00821047       0.00784107       0.02110224
H       -2.55033284      -0.08105798      -1.09052909      -0.00279083      -0.00707626       0.02358052
H       -2.14847952       1.57141598      -3.36985598      -0.00331291       0.00423422       0.01079898
