45
Properties=species:S:1:pos:R:3:forces:R:3 charge=-1 spin=1 energy=-54314.446200387654 free_energy=-54314.446200387654 stress="0.7978029847145081 0.2768707871437073 -0.3384057581424713 0.2768707871437073 0.9233021140098572 -1.0882539749145508 -0.3384057581424713 -1.0882539749145508 1.3632301092147827" pbc="F F F"
C        1.14627575      -0.86541892       1.55400000      -0.23858492       0.07392363      -0.01516046
B        1.52472297      -0.11113831       3.02200173      -0.00046043      -0.00055689       0.00317944
B        0.41472743       1.26576134       3.11759967       0.00548683      -0.00094147      -0.00476290
B       -1.23600955       0.62540702       3.09705713       0.00509532       0.00306418       0.00528353
B        0.04730865      -0.24530119       3.98905356       0.00043070       0.00003070      -0.00102379
B        0.57687023      -1.59958802       2.96577375       0.00346196       0.00067896      -0.00137847
C       -0.33465652      -1.45562873       1.56400000       0.18382500       0.49278677      -0.41407898
B        1.16115951       0.83160490       1.56697927      -0.00475804      -0.00116676       0.00301624
B       -0.55110488       1.32298071       1.60581734      -0.00151625       0.00466033      -0.00375162
B       -1.47771713      -0.20393001       1.53035130      -0.00428046       0.00276409      -0.00567204
B       -1.13230219      -1.13359489       3.01249670       0.00550215      -0.00073677       0.00299605
C        1.14300000       0.92400000      -1.55300000      -0.37823570      -0.16201074       0.25337142
B        1.62541655       0.18858747      -2.99079647       0.00041594      -0.00038159      -0.00153021
B        0.66784454      -1.29617170      -3.08334463       0.00634272       0.00190797       0.00639508
B       -1.04150395      -0.83848804      -3.12066081       0.00564182      -0.00227082      -0.00569121
B        0.16353904       0.15482937      -3.99020260       0.00137913       0.00042976       0.00090051
B        0.51962486       1.56763741      -2.97266384       0.00564411      -0.00032294       0.00151700
C       -0.40000000       1.32300000      -1.56800000       0.09565648       0.03351570       0.18799861
B        1.31744130      -0.75622722      -1.51877606      -0.00415003       0.00141068      -0.00391559
B       -0.32675449      -1.43109502      -1.59726711      -0.00211898      -0.00466260       0.00268165
B       -1.42263278      -0.02478734      -1.57895099      -0.00529975      -0.00249771       0.00724152
B       -1.12509864       0.92301047      -3.05033378       0.00512403       0.00133433      -0.00140116
Co       0.00000000       0.00000000       0.00000000       0.34874997      -0.44580325      -0.02098011
H        1.90034788      -1.45477320       1.06271551       0.00007147      -0.00030946       0.00283252
H        2.63809006      -0.16951157       3.41891469      -0.00053590       0.00207743       0.00125496
H        0.72979887       2.25655474       3.68675343      -0.00404609      -0.00229105      -0.00102098
H       -2.14025140       1.14444008       3.66049032      -0.00391901      -0.00044567       0.00066306
H        0.07476187      -0.33594322       5.17129926      -0.00090064       0.00033174      -0.00221496
H        0.98949490      -2.66288504       3.27407238      -0.00067924       0.00053140       0.00139102
H       -0.49573429      -2.38674693       1.04834618      -0.00023131       0.00253674       0.00178960
H        2.10246411       1.42028078       1.13883045      -0.00165339      -0.00163560      -0.00071415
H       -0.96401528       2.38076619       1.24491030      -0.00121694      -0.00312953       0.00354230
H       -2.56030512      -0.39787227       1.09683140      -0.00391793       0.00093680       0.00295021
H       -1.92574282      -1.91934941       3.40333161       0.00056881       0.00051461      -0.00079772
H        1.81165651       1.59451935      -1.04254383      -0.00044302      -0.00026659      -0.00229949
H        2.73577565       0.35762769      -3.36360242       0.00017426      -0.00150005      -0.00056355
H        1.10214912      -2.25822924      -3.62254782      -0.00472417       0.00298097       0.00064083
H       -1.86836585      -1.45918522      -3.69975742      -0.00460741       0.00055815      -0.00140393
H        0.20903352       0.23584723      -5.17251650      -0.00055371       0.00087355       0.00134192
H        0.80785051       2.67073658      -3.28190719      -0.00018631       0.00050133      -0.00013190
H       -0.67303928       2.25066529      -1.09278585       0.00006530      -0.00242352      -0.00057993
H        2.30019922      -1.24089550      -1.05590750      -0.00270699       0.00247150       0.00191166
H       -0.62750783      -2.52332980      -1.22856123      -0.00063936       0.00332404      -0.00327664
H       -2.53091560       0.06405182      -1.17852106      -0.00420247      -0.00116746      -0.00221240
H       -1.98235092       1.62406653      -3.46642990       0.00093246       0.00037502       0.00166286
