45
Properties=species:S:1:pos:R:3:forces:R:3 charge=-1 spin=1 energy=-54314.45351888436 free_energy=-54314.45351888436 stress="0.8466609120368958 0.25047826766967773 -0.2586669623851776 0.25047826766967773 0.8698251843452454 -1.1739165782928467 -0.2586669623851776 -1.1739165782928467 1.3153715133666992" pbc="F F F"
C        1.23045724      -0.74085963       1.55400000      -0.28598961       0.12861359       0.04354001
B        1.52066524       0.05359240       3.02242265       0.00039131       0.00407062      -0.00094219
B        0.26805881       1.30365289       3.11309187      -0.00116213       0.00063842       0.00194043
B       -1.30507336       0.49085454       3.08926972      -0.00079813      -0.00366819      -0.00423650
B        0.06295265      -0.23632025       3.98567330       0.00001835       0.00073981       0.00135449
B        0.73850628      -1.52745943       2.96668002       0.00276624       0.00253907       0.00010447
C       -0.18066860      -1.48263578       1.56400000       0.17146516       0.46884507      -0.47528833
B        1.06008214       0.95089967       1.56665162       0.00576625      -0.00069073       0.00236621
B       -0.69517080       1.25644839       1.59894208       0.00144027       0.00154894       0.00010814
B       -1.45138271      -0.36130370       1.52090079       0.00069663      -0.00342843      -0.00229083
B       -1.01149135      -1.24653807       3.00817585      -0.00491952      -0.00078658      -0.00760685
C        1.14300000       0.92400000      -1.55300000      -0.40413952      -0.25217059       0.19585590
B        1.61882529       0.18417342      -2.99225424       0.00071183      -0.00221845      -0.00063259
B        0.65427306      -1.29717388      -3.08238555      -0.00208366      -0.00056090      -0.00299206
B       -1.05402493      -0.83467095      -3.11615092      -0.00137001       0.00338848       0.00508688
B        0.15395427       0.15475647      -3.98837313       0.00054033       0.00046363      -0.00085649
B        0.51849739       1.56662879      -2.97254948       0.00291271      -0.00088836      -0.00020418
C       -0.40000000       1.32300000      -1.56800000       0.11999295       0.10198011       0.26946655
B        1.30875822      -0.76028526      -1.52145413       0.00419365       0.00191455      -0.00272408
B       -0.33824643      -1.42961663      -1.59418802       0.00234000      -0.00326534       0.00075918
B       -1.42806540      -0.01971338      -1.57086046       0.00083802       0.00338822       0.00172315
B       -1.12934625       0.92666711      -3.04612073      -0.00600062       0.00020019       0.00780511
Co       0.00000000       0.00000000       0.00000000       0.38675368      -0.45169717      -0.03262075
H        2.04379633      -1.24782569       1.06596977       0.00413409      -0.00026540       0.00449558
H        2.63277101       0.11728767       3.42239631      -0.00220629       0.00026543       0.00338662
H        0.47307145       2.32270826       3.68223876       0.00012032       0.00246528      -0.00010943
H       -2.26188724       0.91016213       3.64951661       0.00440355      -0.00290036       0.00015259
H        0.09639080      -0.32201736       5.16785859       0.00009150       0.00059603       0.00448095
H        1.26057961      -2.54049090       3.27842159      -0.00194150      -0.00058257       0.00187511
H       -0.24182801      -2.42592171       1.04841750      -0.00025326       0.00385960       0.00266748
H        1.93213942       1.63951326       1.14112715       0.00465949       0.00411579      -0.00087542
H       -1.21705832       2.26252813       1.23298719      -0.00512749       0.00170888       0.00187012
H       -2.50357947      -0.67357958       1.08080671      -0.00405499      -0.00164711       0.00371391
H       -1.71768481      -2.11292597       3.39575101       0.00160536      -0.00041686       0.00461715
H        1.81372228       1.59370965      -1.04461892       0.00139669      -0.00004704      -0.00310933
H        2.72928503       0.34733404      -3.36775618      -0.00143123      -0.00055693      -0.00314558
H        1.08348817      -2.26038082      -3.62310727       0.00051610      -0.00263449       0.00013688
H       -1.88503444      -1.45230765      -3.69325805       0.00434799       0.00450021      -0.00019346
H        0.19662444       0.23559739      -5.17060041       0.00072338      -0.00032120      -0.00364416
H        0.80764201       2.66929635      -3.28252797      -0.00076998       0.00062024      -0.00223938
H       -0.67113531       2.25071961      -1.09114565       0.00101931      -0.00299948      -0.00374710
H        2.28964987      -1.25213611      -1.06260314       0.00460478      -0.00273080       0.00065576
H       -0.64157019      -2.51937591      -1.22231163      -0.00487943      -0.00473898      -0.00109234
H       -2.53368506       0.07681564      -1.16366084      -0.00268513       0.00086548      -0.00431941
H       -1.98557465       1.63166502      -3.45730800       0.00136282       0.00188850      -0.00529205
