45
Properties=species:S:1:pos:R:3:forces:R:3 charge=-1 spin=1 energy=-54314.52196409005 free_energy=-54314.52196409005 stress="-0.5323683619499207 0.010206378996372223 -0.12894661724567413 0.010206378996372223 -0.09608852118253708 0.5249372124671936 -0.12894661724567413 0.5249372124671936 0.19954781234264374" pbc="F F F"
C        1.41785154       0.34755314       1.49075444       0.01375456      -0.03501735       0.00235479
B        1.14771879       1.10988373       2.97767632       0.00992202      -0.01207193       0.00460588
B       -0.61356335       1.15395004       3.13252822       0.01254848      -0.00433010       0.00004194
B       -1.20070610      -0.51881691       3.11008886       0.00072035       0.00055609       0.00888443
B        0.32629012      -0.12144897       3.95058583       0.00332527      -0.00760947       0.00671550
B        1.65732577      -0.57894120       2.87193950      -0.00104470      -0.01362028       0.00167701
C        0.89550955      -1.14547005       1.46424421      -0.01898775      -0.03118454       0.03366644
B        0.14307044       1.45326560       1.55650633       0.02423372      -0.00447509      -0.00121468
B       -1.32453890       0.47085105       1.63600000      -0.31739530       0.08057684      -0.18422782
B       -0.80045398      -1.22346338       1.51372727      -0.01347015       0.01329991       0.00518296
B        0.20021898      -1.57841613       2.94694379      -0.00349363      -0.00548451       0.01797781
C        1.06039991       0.98272898      -1.48575610      -0.02250706       0.02907355      -0.01433546
B        1.58830239       0.32410810      -2.95371417      -0.00854395       0.01842939      -0.00937975
B        0.70288929      -1.20142468      -3.09898482       0.00085413       0.01656760      -0.00007933
B       -1.02886925      -0.82201511      -3.10695678      -0.00221456       0.00199047      -0.00585049
B        0.12501413       0.25563975      -3.94755809      -0.00966052       0.00896992      -0.00683370
B        0.41863369       1.64690772      -2.88799859      -0.01502050       0.00892814      -0.00512520
C       -0.48671291       1.32464684      -1.48642906      -0.03240998      -0.00007495      -0.02893465
B        1.32856605      -0.68755975      -1.52350085       0.01120099       0.02433121      -0.00648244
B       -0.27500000      -1.43300000      -1.61500000      -0.07426917      -0.04356822       0.19354586
B       -1.44038324      -0.08541060      -1.52640461       0.00235947      -0.01760732       0.00231740
B       -1.19596103       0.92937212      -2.97403180      -0.01018318       0.00133558      -0.01401877
Co       0.00000000       0.00000000       0.00000000       0.46986604      -0.04434027       0.00302126
H        2.33872939       0.54200617       0.96502595       0.02254768      -0.02089319       0.01434877
H        1.93430599       1.91031773       3.35526878       0.00775002      -0.00309239      -0.00550585
H       -1.14797330       2.02666854       3.73040398       0.00283476      -0.00512963      -0.00658980
H       -2.16019286      -0.87467395       3.70664373      -0.00744466      -0.00160782      -0.00466191
H        0.45904469      -0.18179420       5.12717191      -0.00357461      -0.00770324       0.00531500
H        2.74371011      -0.96834933       3.12685218      -0.00446924      -0.00947058      -0.00368587
H        1.49641045      -1.86719799       0.93719402      -0.01342895      -0.01415663       0.02731404
H        0.27653109       2.54697653       1.10285152       0.02819882      -0.00052809      -0.00574231
H       -2.39984533       0.85448822       1.30054395       0.01873288       0.00458195       0.03469613
H       -1.37249197      -2.16218107       1.07559505      -0.01433674       0.01682943       0.01049528
H        0.30869950      -2.69659628       3.31742091      -0.00642293      -0.01167162      -0.00905302
H        1.70452896       1.67140591      -0.96270392      -0.01077427       0.02622116      -0.02334820
H        2.68958863       0.56536568      -3.31597785      -0.00359942       0.01025282       0.00090585
H        1.17806555      -2.12185387      -3.67547753      -0.00747978       0.00881677       0.00732034
H       -1.82735718      -1.45713092      -3.70898020      -0.00831407      -0.00478671       0.00759948
H        0.16270819       0.38164901      -5.12582544      -0.01647498       0.00211665      -0.00534328
H        0.66326234       2.77059159      -3.16049306      -0.01471217       0.00423942       0.00214184
H       -0.79304981       2.22706174      -0.98375498      -0.01330844      -0.00546110      -0.01700660
H        2.32145165      -1.14070428      -1.04601852       0.02241069       0.03218595      -0.00828858
H       -0.51692589      -2.54089323      -1.25797504       0.01736823       0.01316031      -0.03833643
H       -2.54653394      -0.07101143      -1.10540073       0.00450124      -0.01998670       0.00134506
H       -2.08336766       1.60171784      -3.37334496      -0.01958858       0.00140805       0.01257132
