45
Properties=species:S:1:pos:R:3:forces:R:3 charge=-1 spin=1 energy=-54314.5359087159 free_energy=-54314.5359087159 stress="1.008673071861267 0.331272691488266 -0.9807058572769165 0.331272691488266 0.30961281061172485 -0.469575434923172 -0.9807058572769165 -0.469575434923172 0.7573592066764832" pbc="F F F"
C       -0.78335065      -1.20385205       1.55400000       0.01825241       0.23433994      -0.26629484
B        0.00076154      -1.52129052       3.01058100       0.00239966      -0.00462106       0.00562929
B        1.29062271      -0.31573594       3.10256785       0.00441462       0.00428230       0.00782986
B        0.53185155       1.28459086       3.10093105       0.00120959       0.00022799      -0.00589095
B       -0.24086746      -0.06121625       3.98400288       0.00194963      -0.00636920       0.00996443
B       -1.55525994      -0.68581137       2.96346362      -0.00387864      -0.00497378       0.00382993
C       -1.47542736       0.23230179       1.56400000       0.38759825      -0.10271176      -0.26257166
B        0.91265360      -1.09498568       1.53972460       0.00479214       0.00000846       0.01314871
B        1.27288189       0.65012160       1.59918303      -0.00553722      -0.00213791      -0.00424543
B       -0.31126000       1.45997700       1.54550906      -0.00894147       0.00488894      -0.01399776
B       -1.21764302       1.05462720       3.01528379       0.00336002      -0.00767576       0.00670176
C        1.14300000       0.92400000      -1.55300000      -0.46698064      -0.26390108       0.41587859
B        1.60252189       0.15552161      -2.97134677       0.01082584      -0.00132530      -0.00490781
B        0.63587972      -1.32142186      -3.03475954       0.00145887      -0.00570936      -0.00945945
B       -1.07155885      -0.85401683      -3.08723545       0.00354198      -0.00231715       0.00612918
B        0.13713061       0.11864754      -3.96744478       0.01261042      -0.00257859      -0.00997249
B        0.50874229       1.54542799      -2.97564449       0.00680251       0.00271683      -0.00405321
C       -0.40000000       1.32300000      -1.56800000       0.03729545       0.10901147      -0.02476978
B        1.30335172      -0.76592774      -1.46721146       0.00253318      -0.00558170      -0.01266871
B       -0.34954017      -1.43296454      -1.55061607       0.00357142       0.00521082       0.00095928
B       -1.42956636      -0.02005282      -1.56520722      -0.00599759       0.00749855       0.01095046
B       -1.14336671       0.91245268      -3.03831698       0.01123428      -0.00672710      -0.00569012
Co       0.00000000       0.00000000       0.00000000      -0.11142304       0.10860556       0.14183144
H       -1.31136764      -1.99416893       1.04656140      -0.00401233       0.00456798       0.01599155
H        0.03485750      -2.63599181       3.40304871      -0.00629453      -0.00746315       0.01339578
H        2.30265440      -0.55431560       3.66962293       0.00642524      -0.01078836       0.00459580
H        0.98613666       2.22383363       3.66381274       0.00791139      -0.00349329      -0.00074228
H       -0.32381299      -0.10327986       5.16573254       0.00016779       0.00572843       0.01407681
H       -2.58382202      -1.17670707       3.27354091      -0.01214153       0.00063457       0.00640469
H       -2.42070068       0.32405935       1.05652161       0.01568613       0.00260654       0.01250263
H        1.57070374      -1.98717947       1.12418778      -0.02002719      -0.02224402       0.03516000
H        2.29226562       1.14394485       1.23192177       0.01576190      -0.01497670       0.01022211
H       -0.57560524       2.52070002       1.07804109       0.00279610       0.01125383       0.02064052
H       -2.06376946       1.78273826       3.41024870       0.00652914       0.00593001      -0.00167890
H        1.81277285       1.59043529      -1.03641183      -0.00443851       0.00352634      -0.01612454
H        2.71197608       0.29825095      -3.35336478       0.01463327       0.00736536      -0.01037470
H        1.05600203      -2.29266664      -3.56624961       0.01930117      -0.00707634      -0.00140140
H       -1.90674075      -1.47638560      -3.65346531       0.01164055      -0.01031987      -0.00022222
H        0.18287646       0.17924880      -5.15035021       0.00324669      -0.00452986      -0.01432140
H        0.80256814       2.64089853      -3.30580791       0.00017209       0.00881900      -0.00714420
H       -0.66597915       2.25923366      -1.10590597      -0.00090982      -0.01533928      -0.00960450
H        2.28021957      -1.25598289      -1.01181488       0.02055847       0.02399867      -0.03257553
H       -0.66226850      -2.51197941      -1.15650613       0.02211779      -0.01441868      -0.01016562
H       -2.52872171       0.07727736      -1.12309396      -0.01208964      -0.01047238      -0.02588125
H       -1.99527375       1.61931477      -3.45950405       0.00187425      -0.01346980      -0.00108438
