45
Properties=species:S:1:pos:R:3:forces:R:3 charge=-1 spin=1 energy=-242.27438354492188 free_energy=-242.27438354492188 stress="-7.684626268655848e-08 9.071651874137387e-09 -5.506225164708667e-08 9.071651874137387e-09 -8.494742331777161e-08 8.960121533618803e-08 -5.506225164708667e-08 8.960121533618803e-08 -1.6903568678117153e-07" pbc="F F F"
C        1.43069912      -0.12648327       1.55400000       0.22820063       0.02647802       0.30469531
B        1.35151305       0.69580245       3.03111793      -0.00033347      -0.00039917      -0.00205146
B       -0.31211100       1.29026296       3.08529082      -0.00133516       0.00081445      -0.00147109
B       -1.38396544      -0.13714342       3.05665604      -0.00175923      -0.00151774      -0.00149169
B        0.15593669      -0.19741470       3.97298535       0.00002574      -0.00129397       0.00085537
B        1.31322843      -1.05838453       3.02550429      -0.00210299      -0.00022643      -0.00019512
C        0.48756088      -1.41178411       1.56400000      -0.05278671      -0.08414344       0.01401502
B        0.56947673       1.32180316       1.55247774      -0.00154451      -0.00524065       0.00013578
B       -1.15528204       0.84173844       1.58881605      -0.00320548      -0.00012869      -0.00147864
B       -1.12373151      -0.95550604       1.48391557      -0.00216612      -0.00006118       0.00017574
B       -0.35704943      -1.57602959       3.01199227       0.00155111      -0.00042813      -0.00017789
C        1.14300000       0.92400000      -1.55300000       0.10623880       0.04351375      -0.18168570
B        1.61864968       0.20143694      -3.00041844      -0.00065253       0.00056514       0.00372104
B        0.67824862      -1.29268718      -3.04783295      -0.00060309      -0.00129455       0.00234614
B       -1.04729617      -0.83805941      -3.07768261      -0.00302321      -0.00006489       0.00235213
B        0.14751723       0.15480596      -3.97092354      -0.00021141       0.00053023      -0.00040522
B        0.50422164       1.55499784      -3.02766521      -0.00130219      -0.00120193       0.00022940
C       -0.40000000       1.32300000      -1.56800000      -0.16319841       0.29543734      -0.22472490
B        1.34473857      -0.74163428      -1.50500885      -0.00272891       0.00331821       0.00057629
B       -0.30188193      -1.43951467      -1.57992800      -0.00275050      -0.00266951       0.00219075
B       -1.40448547      -0.02073305      -1.52928044      -0.00162685      -0.00269596      -0.00030141
B       -1.12987660       0.92719584      -3.04510621       0.00095487       0.00136746       0.00059206
Co       0.00000000       0.00000000       0.00000000      -0.08439189      -0.26657620       0.07077722
H        2.40822024      -0.20688504       1.06865851      -0.00383314       0.00042232       0.00397566
H        2.32157688       1.25367485       3.44217724      -0.00005513       0.00111532      -0.00053133
H       -0.59616991       2.29146199       3.66943553      -0.00090627       0.00207137      -0.00051210
H       -2.44258697      -0.15977366       3.60846330      -0.00156932       0.00018289      -0.00045348
H        0.16386518      -0.21862683       5.16300976      -0.00058787       0.00116520       0.00057125
H        2.23018663      -1.74420890       3.33968589      -0.00169587       0.00131045       0.00058748
H        0.82577512      -2.30877995       1.03723611      -0.00100014       0.00208607       0.00308926
H        1.06386695       2.31527617       1.10334849      -0.00071594       0.00094846      -0.00549945
H       -2.05309995       1.51626570       1.17454474       0.00058639      -0.00431200       0.00030941
H       -1.93359525      -1.70320825       1.02183504       0.00091219      -0.00108761       0.00006837
H       -0.65282116      -2.66484255       3.39709005      -0.00030789       0.00149104       0.00049981
H        1.84738537       1.59615085      -1.05371145       0.00248688       0.00150210       0.00407357
H        2.73466204       0.35090723      -3.39148623       0.00014427      -0.00129255       0.00068283
H        1.09062258      -2.26318454      -3.60637043       0.00097917      -0.00281726       0.00238904
H       -1.87321741      -1.48268435      -3.65026662      -0.00092144      -0.00236456       0.00189446
H        0.16951990       0.16431436      -5.16086933      -0.00041523      -0.00248173       0.00022465
H        0.79735856       2.66100921      -3.34485516      -0.00078201      -0.00188264      -0.00106877
H       -0.70463434       2.25318415      -1.07702519      -0.00011097       0.00017694      -0.00050265
H        2.32821347      -1.20933961      -1.01070439      -0.00060978      -0.00242763       0.00135309
H       -0.58927316      -2.51346545      -1.13876028      -0.00272233       0.00244476      -0.00027083
H       -2.51940509       0.06775826      -1.10574094      -0.00025225       0.00183461       0.00099558
H       -2.01989415       1.60575352      -3.45581787       0.00012821      -0.00216722      -0.00055465
