45
Properties=species:S:1:pos:R:3:forces:R:3 charge=-1 spin=1 energy=-242.2762451171875 free_energy=-242.2762451171875 stress="-8.627520742265915e-08 2.130617282602998e-08 5.972319172542484e-08 2.130617282602998e-08 -5.164580940686392e-08 3.707697615595862e-08 5.972319172542484e-08 3.707697615595862e-08 -2.208015814630926e-07" pbc="F F F"
C       -1.35760217       0.46884362       1.55400000      -0.24806872      -0.02944249       0.22007528
B       -1.47916319      -0.36885620       3.01838037       0.00192702      -0.00600262       0.00549213
B       -0.00133389      -1.33453322       3.06993727       0.00429317       0.00296018       0.00192460
B        1.37667942      -0.19846129       3.06783337      -0.00309566       0.00183316       0.00145065
B       -0.11778755       0.20608076       3.97149124       0.00177733       0.00164790      -0.00134499
B       -1.03246750       1.32200650       3.02199367      -0.00009811       0.00167346       0.00468727
C       -0.13153675       1.48779975       1.56400000       0.02846882       0.04729563       0.15864646
B       -0.84550930      -1.13766152       1.50877110       0.00061217      -0.00059322       0.00171222
B        0.93993918      -1.07062074       1.57733544       0.00210658       0.00123385       0.00235708
B        1.33864769       0.68436209       1.53084100       0.00013480      -0.00149456       0.00116675
B        0.71558907       1.43714366       3.02096451       0.00220995      -0.00366531       0.00507068
C        1.14300000       0.92400000      -1.55300000       0.13448431      -0.04621080      -0.16760960
B        1.61567203       0.16650523      -2.98394693       0.00076310      -0.00679045      -0.00323652
B        0.66228509      -1.32078520      -3.00691003      -0.00431126      -0.00002974       0.00087835
B       -1.06109616      -0.85578506      -3.05687091       0.00070176       0.00301176      -0.00004749
B        0.15227869       0.10903716      -3.95628021      -0.00353666       0.00005770       0.00119246
B        0.51492259       1.52296831      -3.03488289      -0.00299672       0.00063728      -0.00352354
C       -0.40000000       1.32300000      -1.56800000      -0.13269833       0.23992179      -0.30291352
B        1.31806085      -0.74756062      -1.44557088       0.00157109       0.00066322      -0.00149667
B       -0.33570857      -1.43149947      -1.53141150      -0.00090075       0.00132680       0.00018029
B       -1.43244965      -0.00651034      -1.54824785      -0.00015593      -0.00097366      -0.00048691
B       -1.12752075       0.90849808      -3.04114644       0.00037435      -0.00254043      -0.00346883
Co       0.00000000       0.00000000       0.00000000       0.22279142      -0.23012379       0.07294543
H       -2.28593509       0.76293917       1.05510237       0.00125054       0.00333512       0.00320236
H       -2.55395796      -0.69544263       3.41616041      -0.00363973      -0.00157958      -0.00071073
H        0.03239237      -2.38763776       3.63147582       0.00121394       0.00323233       0.00018531
H        2.40091320      -0.44087816       3.63047480      -0.00434224       0.00528635       0.00109995
H       -0.12879245       0.21979462       5.16128731      -0.00248767       0.00172179      -0.00354405
H       -1.76066486       2.20326165       3.34132803      -0.00546290       0.00271663      -0.00226057
H       -0.25897790       2.45707071       1.07226581       0.00257478       0.00223438       0.00657681
H       -1.56054055      -1.98971299       1.07017385       0.00045723      -0.00158073       0.00244334
H        1.66959320      -1.93462959       1.18929446       0.00233993       0.00082200       0.00137793
H        2.30132910       1.21296920       1.05918033       0.00062551       0.00042694       0.00566291
H        1.24207277       2.42542593       3.42857823      -0.00493036       0.00259306      -0.00082648
H        1.85558007       1.58625754      -1.05486088       0.00008957      -0.00246886      -0.00232942
H        2.73599956       0.29241140      -3.36970541       0.00333336      -0.00144654       0.00055203
H        1.07732543      -2.30847255      -3.53380464      -0.00276992       0.00102238       0.00195687
H       -1.88025289      -1.51057731      -3.62679618       0.00094451       0.00475631       0.00075585
H        0.17673889       0.09993085      -5.14596796       0.00103393      -0.00031953       0.00272517
H        0.81189083       2.62115848      -3.37378149       0.00331388       0.00167888      -0.00001693
H       -0.69248820       2.27692418      -1.11731639      -0.00264863       0.00084494      -0.00651956
H        2.30767793      -1.21799990      -0.97070936       0.00123652      -0.00238768      -0.00014972
H       -0.64528153      -2.50754943      -1.11160011      -0.00131428       0.00173692      -0.00055338
H       -2.53520448       0.09210786      -1.09451996      -0.00033016       0.00051827      -0.00300663
H       -2.00192358       1.59276729      -3.47427428       0.00315852       0.00246139      -0.00027242
