45
Properties=species:S:1:pos:R:3:forces:R:3 charge=-1 spin=1 energy=-54314.49737645882 free_energy=-54314.49737645882 stress="-0.15794935822486877 0.23944582045078278 0.04304250702261925 0.23944582045078278 -0.008038538508117199 -0.04259860888123512 0.04304250702261925 -0.04259860888123512 -0.03864574432373047" pbc="F F F"
C        1.39814838       0.42060951       1.49820801       0.01428233      -0.02937915       0.00081603
B        1.08405708       1.17097288       2.98248057      -0.00518410      -0.01014255       0.00553892
B       -0.67641251       1.11098346       3.13293281      -0.00378440       0.00384598       0.01038621
B       -1.16635349      -0.59097244       3.11689024      -0.00471742      -0.00095576      -0.00180930
B        0.33511317      -0.10445023       3.95944914      -0.01452884      -0.01043039       0.00577581
B        1.68991599      -0.48533436       2.88337487      -0.00622403      -0.01710135      -0.01301686
C        0.95863780      -1.09653312       1.47855469      -0.01041395      -0.02981165      -0.01556577
B        0.06504290       1.45403864       1.55761766      -0.01685900      -0.00070032       0.00656562
B       -1.35149020       0.38675345       1.63600000      -0.24455225       0.13352560      -0.09965214
B       -0.72767056      -1.26757969       1.52242900       0.00712698      -0.02432287      -0.01575208
B        0.29177622      -1.56831572       2.95989214       0.01203180      -0.00073647      -0.03024949
C        1.04816853       0.99394616      -1.49749828      -0.01404576       0.03020086       0.00111455
B        1.58086966       0.33780796      -2.96369843      -0.01673863       0.00260641      -0.00082144
B        0.70166679      -1.19082451      -3.10126141      -0.00143235      -0.00450601      -0.01156504
B       -1.03041654      -0.82196864      -3.11095467      -0.00812674      -0.00546589      -0.00101077
B        0.11697598       0.26096545      -3.95677921      -0.02497040      -0.00557004      -0.00670689
B        0.40412294       1.65400071      -2.90103030      -0.01695902       0.00134257       0.01767415
C       -0.49856481       1.32288020      -1.49847402      -0.02308170       0.00650591       0.01549355
B        1.33052660      -0.67144785      -1.52921635      -0.00796062      -0.01242392      -0.00474676
B       -0.27500000      -1.43300000      -1.61500000       0.02982291      -0.00422223       0.11449341
B       -1.44125440      -0.09203236      -1.53059989      -0.01460506       0.01334542       0.01041520
B       -1.20804130       0.92723596      -2.98278501      -0.00180335       0.00808282       0.02357665
Co       0.00000000       0.00000000       0.00000000       0.47744155      -0.04430507      -0.00217076
H        2.31574878       0.66097461       0.98604267      -0.00080890      -0.00460951      -0.02999726
H        1.81900764       2.02270922       3.35218064       0.01371484      -0.02046756       0.00869328
H       -1.26754086       1.94841346       3.72596759       0.00967357       0.02384417       0.01141058
H       -2.10624892      -1.00657062       3.70527838      -0.01124208       0.02087557       0.01834836
H        0.46794263      -0.15744937       5.13591846      -0.00311829       0.00692288       0.01658475
H        2.80081489      -0.80681673       3.12775625      -0.01652214      -0.02613310       0.02017307
H        1.59919740      -1.79168443       0.96425185       0.00100756       0.00052768      -0.03081213
H        0.14414187       2.55556544       1.10808011       0.01112342      -0.01848122       0.00258600
H       -2.45302830       0.71208397       1.32635895       0.03602463      -0.00743557      -0.01158814
H       -1.24850661      -2.23614231       1.08932184      -0.01248181      -0.02049203      -0.00674554
H        0.47039177      -2.68297412       3.31643457      -0.03075787       0.01604977       0.01961338
H        1.68826211       1.69678294      -0.98953669      -0.00112661       0.00671375       0.03133231
H        2.68551715       0.57745223      -3.31775021      -0.02360078       0.02453884      -0.01819479
H        1.17514435      -2.11409467      -3.67215004       0.01871599      -0.00158564      -0.01995868
H       -1.83063283      -1.46171395      -3.70465224       0.00238234      -0.01945060      -0.01487672
H        0.15036654       0.38354567      -5.13500265      -0.01051978      -0.00264241      -0.01803657
H        0.64915263       2.78057668      -3.16267877      -0.04037061      -0.00437808      -0.01823416
H       -0.81230059       2.22542237      -1.00227473      -0.01139027       0.00327958       0.01963510
H        2.33810329      -1.10810769      -1.06527299      -0.01736675       0.01516171       0.00348575
H       -0.50786075      -2.55148107      -1.28687380       0.01168161       0.04130436       0.01275119
H       -2.54643854      -0.08674857      -1.10970373      -0.01873653      -0.00303373       0.00501904
H       -2.10118835       1.60117411      -3.36851481      -0.01099969      -0.02989065      -0.00997184
