45
Properties=species:S:1:pos:R:3:forces:R:3 charge=-1 spin=1 energy=-54314.45288564461 free_energy=-54314.45288564461 stress="1.507224678993225 0.22925139963626862 0.6264457702636719 0.22925139963626862 0.4675079584121704 -0.5164535641670227 0.6264457702636719 -0.5164535641670227 0.9548401832580566" pbc="F F F"
C        0.74085963       1.23045724       1.55400000      -0.13025612      -0.22724852       0.01404715
B       -0.06750590       1.52125882       3.01069026      -0.00384292       0.00027048      -0.00222270
B       -1.32137832       0.27064504       3.07519141      -0.00209401       0.00135702       0.00165453
B       -0.50927973      -1.30337452       3.05220139      -0.00668782      -0.00102506      -0.00044309
B        0.20840217       0.05681893       3.96749569       0.00016891       0.00115803       0.00187307
B        1.51492737       0.73330024       2.97148651      -0.00210759       0.00181640       0.00125197
C        1.48263578      -0.18066860       1.56400000      -0.50797725       0.27739924      -0.37978223
B       -0.95887848       1.07186170       1.54006992       0.00667828       0.00452851       0.00146208
B       -1.26595400      -0.68912700       1.54982574       0.00315162      -0.00415693       0.00230220
B        0.35599766      -1.44625930       1.49109914      -0.00606924      -0.00103960       0.00283576
B        1.22806067      -1.01603994       2.99831887      -0.00234446      -0.00223080      -0.00113810
C        1.14300000       0.92400000      -1.55300000      -0.49469584      -0.37468216       0.04581539
B        1.60541613       0.16431885      -2.98544819       0.00198719      -0.00420528       0.00061024
B        0.63485889      -1.31667429      -3.04033628       0.00116263      -0.00287098      -0.00138509
B       -1.07298689      -0.85020193      -3.06365574      -0.00148596      -0.00778923       0.00148305
B        0.12922593       0.12277607      -3.96474534       0.00062229      -0.00146147      -0.00163545
B        0.50722655       1.54977577      -2.97819515       0.00259761      -0.00306091      -0.00045827
C       -0.40000000       1.32300000      -1.56800000       0.20080197       0.17452849       0.29516348
B        1.30998927      -0.76971957      -1.49772481       0.00251445       0.00771219      -0.00284946
B       -0.34767417      -1.43806766      -1.53398250      -0.00473038       0.00301823      -0.00140443
B       -1.43006020      -0.01937468      -1.52122009      -0.00106504      -0.00594059      -0.00142710
B       -1.14447006       0.90893990      -3.02351968      -0.00220771      -0.00492043       0.00238941
Co       0.00000000       0.00000000       0.00000000       0.96491599       0.19945157       0.02256899
H        1.25868518       2.05532612       1.08847802       0.00010287      -0.00560644       0.00191899
H       -0.12812006       2.63231084       3.41646845       0.00073073      -0.00255154      -0.00019916
H       -2.34525996       0.46769955       3.63766985      -0.00392138       0.00093924       0.00116907
H       -0.93732691      -2.26068063       3.60349362      -0.00221542      -0.00219683       0.00063531
H        0.27987960       0.08185103       5.15072131      -0.00291730      -0.00013962       0.00393589
H        2.52691431       1.25194109       3.29719560      -0.00058546      -0.00034493       0.00227756
H        2.43353067      -0.24624499       1.06123139      -0.00502004       0.00235955       0.00344509
H       -1.63050959       1.94495412       1.08974927       0.00021183      -0.00252105       0.00502332
H       -2.26851418      -1.21189566       1.19096107      -0.00004792      -0.00115574       0.00419240
H        0.67037869      -2.49711500       1.04685302       0.00361782       0.00213649       0.00478526
H        2.08715324      -1.72759675       3.39359332      -0.00062676      -0.00009878       0.00285222
H        1.82604906       1.60624098      -1.07190910      -0.00470957      -0.00092355      -0.00272727
H        2.71219710       0.32095398      -3.37690426      -0.00002998      -0.00040001      -0.00044195
H        1.05113163      -2.28795586      -3.57598425       0.00225111      -0.00472484      -0.00069028
H       -1.90812037      -1.47250617      -3.62794501      -0.00259168      -0.00445665      -0.00075341
H        0.15902649       0.18483253      -5.14838346       0.00100437      -0.00433069      -0.00376553
H        0.79274986       2.64977629      -3.30623857      -0.00061444      -0.00227817      -0.00270178
H       -0.67250049       2.25726970      -1.10232418       0.00311965      -0.00398492      -0.00191361
H        2.28695750      -1.25340798      -1.02209836      -0.00488866      -0.00041050      -0.00636429
H       -0.65207185      -2.52215191      -1.16233431      -0.00185839       0.00048868      -0.00526999
H       -2.53081081       0.08771259      -1.09888996      -0.00079400       0.00239767      -0.00379378
H       -2.00338382       1.61026516      -3.43709883       0.00074569      -0.00280531      -0.00232559
