45
Properties=species:S:1:pos:R:3:forces:R:3 charge=-1 spin=1 energy=-242.27194213867188 free_energy=-242.27194213867188 stress="-5.136665137683849e-08 1.8420642788896657e-08 -5.698510108231858e-09 1.8420642788896657e-08 -9.755780894238342e-08 1.0926984828074637e-07 -5.698510108231858e-09 1.0926984828074637e-07 -1.225405128479906e-07" pbc="F F F"
C        0.17373977      -1.42573227       1.55400000       0.06330520      -0.20582858       0.22826019
B        0.95397220      -1.18535230       3.04000805      -0.00166325      -0.00079840       0.00013862
B        1.18148812       0.56985716       3.09967397       0.00135158      -0.00222626      -0.00120673
B       -0.43707498       1.31776721       3.07215198       0.00089183       0.00130941      -0.00138933
B       -0.17055342      -0.21158007       3.98065013       0.00119551      -0.00063805       0.00009694
B       -0.76374768      -1.51863944       3.02230644      -0.00028773       0.00124767      -0.00096226
C       -1.27956364      -0.77043293       1.56400000      -0.08309152       0.03837347      -0.00459728
B        1.40024888      -0.27775038       1.55290368      -0.00321630       0.00125025      -0.00417292
B        0.56449470       1.30855361       1.60722954      -0.00101982      -0.00101435      -0.00086991
B       -1.18094751       0.90750515       1.51420624      -0.00257421      -0.00085427       0.00020759
B       -1.62420598       0.00755756       3.01528603      -0.00070908      -0.00174988      -0.00370114
C        1.14300000       0.92400000      -1.55300000       0.11896256       0.03829771      -0.08882082
B        1.62026603       0.19894160      -3.00014558      -0.00068271       0.00302010      -0.00007928
B        0.67251872      -1.29437746      -3.04135182       0.00227545       0.00122091       0.00026215
B       -1.05129145      -0.83718132      -3.07972047      -0.00012831      -0.00094520       0.00103058
B        0.15473596       0.15197777      -3.97042971       0.00152531       0.00102270      -0.00021889
B        0.51375983       1.55340358      -3.02998887       0.00016140      -0.00075874       0.00100281
C       -0.40000000       1.32300000      -1.56800000      -0.16232300       0.22842684      -0.23152344
B        1.33439991      -0.73983610      -1.48523375      -0.00351611       0.00161755       0.00371827
B       -0.31837179      -1.43471534      -1.57785819      -0.00011595       0.00116745       0.00068827
B       -1.41860286      -0.02191011      -1.55397536      -0.00090393       0.00138465       0.00014770
B       -1.12511208       0.93028592      -3.04695678       0.00013936       0.00171319       0.00294680
Co       0.00000000       0.00000000       0.00000000       0.08236212      -0.11506183       0.10126106
H        0.30725132      -2.38654014       1.04854794      -0.00124388      -0.00401685      -0.00332834
H        1.70990109      -2.01480744       3.44238594      -0.00125490       0.00063060       0.00057648
H        2.10286827       1.05462717       3.68374976       0.00012335       0.00003214       0.00006448
H       -0.68046324       2.34045581       3.63737767       0.00018261       0.00239363      -0.00148463
H       -0.19294352      -0.22980812       5.17079211      -0.00041482       0.00111986       0.00069268
H       -1.24250956      -2.56248078       3.32448429       0.00013632       0.00265479       0.00021008
H       -2.08473551      -1.28850942       1.03526648      -0.00735100      -0.00213472      -0.00357483
H        2.48933467      -0.55838593       1.15106195      -0.00137018       0.00042477      -0.00077923
H        1.04695028       2.32427325       1.19440195       0.00071565      -0.00108926      -0.00170436
H       -2.06922075       1.53980552       1.02435647       0.00152832      -0.00097926      -0.00059684
H       -2.75145482       0.05654692       3.40042430       0.00038743       0.00182239      -0.00070940
H        1.84377831       1.58519895      -1.03513405       0.00616704       0.00530399       0.00273459
H        2.74118843       0.33571465      -3.38200172      -0.00153992       0.00134653      -0.00059992
H        1.08841978      -2.27007341      -3.58879137       0.00034416       0.00022005      -0.00101298
H       -1.87145797      -1.48110484      -3.66042186      -0.00125454      -0.00140208       0.00099007
H        0.17874126       0.15626411      -5.16066156      -0.00102060       0.00049962      -0.00057279
H        0.81100966       2.65858153      -3.34642706      -0.00179717      -0.00157449       0.00061302
H       -0.70296835       2.25523453      -1.08101048      -0.00453983       0.00551081       0.00385404
H        2.33179993      -1.21000894      -1.02853504      -0.00127028       0.00043564      -0.00026353
H       -0.60168955      -2.51411086      -1.14406048       0.00089703      -0.00022753       0.00032466
H       -2.52280046       0.06734474      -1.10367222       0.00199390      -0.00024088       0.00162220
H       -2.00725146       1.61509754      -3.46408767      -0.00135681      -0.00090604       0.00072564
