45
Properties=species:S:1:pos:R:3:forces:R:3 charge=-1 spin=1 energy=-54314.465632455525 free_energy=-54314.465632455525 stress="-0.2831859588623047 -0.006607755087316036 -0.22792507708072662 -0.006607755087316036 -0.16781415045261383 0.1185622587800026 -0.22792507708072662 0.1185622587800026 2.399285316467285" pbc="F F F"
C       -1.33610197       0.57720714       1.52805946       0.01274479       0.02357645      -0.00116450
B       -1.53031248      -0.19376052       3.01967822      -0.00998102      -0.00066601      -0.01271879
B       -0.14223030      -1.27230175       3.14574136      -0.01725314       0.00033244      -0.00473184
B        1.32421892      -0.27646427       3.10090604      -0.00991969      -0.01026189       0.00343322
B       -0.11952538       0.30908417       3.97282179      -0.01064309      -0.00037318      -0.00840515
B       -0.94594298       1.46887620       2.91556557       0.00114495      -0.00008639      -0.00934353
C       -0.03522802       1.46741563       1.49471520       0.02502767      -0.00033506       0.01766247
B       -0.96552928      -1.07558889       1.56500370      -0.00877464       0.02566085      -0.03671249
B        0.79481517      -1.15947093       1.63600000       0.30114785      -0.08119179      -0.42011678
B        1.37231056       0.52446362       1.51390097       0.01534816      -0.01896727       0.03281929
B        0.82366377       1.40954745       2.95865280      -0.00240614      -0.00581122      -0.00385938
C        1.01971426       0.99592896      -1.56143475      -0.02181717       0.01674750       0.00414591
B        1.50563999       0.31851898      -3.03134366       0.00901083       0.00442722       0.01347509
B        0.64197901      -1.21454977      -3.12217253       0.01574213       0.00851770       0.00462723
B       -1.09593902      -0.86057138      -3.09690605       0.01305175      -0.00495291      -0.00259327
B        0.01543592       0.21295365      -3.99165483       0.00950104       0.00554390       0.00893043
B        0.32445692       1.62987854      -2.97112035      -0.00181987       0.00101823       0.00992864
C       -0.52344641       1.31601282      -1.54599478      -0.02234735      -0.00915019      -0.01792984
B        1.31321336      -0.67164337      -1.54847928      -0.00137313       0.03077957       0.03458063
B       -0.27500000      -1.43300000      -1.61500000      -0.25073257      -0.11509241       0.50089878
B       -1.45581564      -0.09825156      -1.53000845      -0.00732782      -0.02280167      -0.03384539
B       -1.28527672       0.89088298      -3.00210084       0.00447688      -0.00449897       0.00372652
Co       0.00000000       0.00000000       0.00000000      -0.05455076       0.16927101      -0.07564804
H       -2.21383236       0.95431373       1.02840040       0.02680160       0.02613983      -0.02577382
H       -2.62364698      -0.37671166       3.43312370      -0.01907367      -0.00089631      -0.02936381
H       -0.21333467      -2.28956935       3.74721979      -0.00887804      -0.00590507      -0.00826333
H        2.32372873      -0.56418031       3.66893513      -0.00847536      -0.00114087      -0.00448537
H       -0.16145503       0.43028364       5.15216909      -0.01916542      -0.00157592      -0.01197302
H       -1.58055177       2.42859993       3.19108458      -0.00591570      -0.00512993      -0.02522255
H       -0.09790918       2.41733372       0.98551518       0.03148038       0.00476751       0.02968700
H       -1.73730953      -1.87903143       1.16120821      -0.00537821       0.01701938      -0.03524750
H        1.43545847      -2.10210368       1.30391845      -0.00593849      -0.00484804       0.00166813
H        2.37397593       0.94917449       1.03617921       0.01062160      -0.03617244       0.00831078
H        1.41344829       2.37551892       3.30943720      -0.01126287      -0.00620797      -0.01187895
H        1.68118609       1.69593329      -1.07705096      -0.03301948       0.01731811       0.02145259
H        2.58757508       0.55978039      -3.44494226       0.01751940       0.00819145       0.03021527
H        1.10387693      -2.14106937      -3.69657592       0.01231143      -0.00089663       0.01045968
H       -1.90515312      -1.52561275      -3.65136143       0.01065450       0.00202239       0.00346353
H        0.01350928       0.30947516      -5.17406668       0.02027465       0.00487929       0.01220631
H        0.54102172       2.75246077      -3.27522814       0.00806285      -0.00119582       0.02239276
H       -0.83486005       2.23125274      -1.06541662      -0.03350975      -0.00901651      -0.02976312
H        2.33242373      -1.10384977      -1.12555211      -0.00110430       0.02117427       0.03139677
H       -0.50381282      -2.53950679      -1.25137233       0.00691406      -0.00173210      -0.00038001
H       -2.54740703      -0.08001003      -1.06068852       0.00473703      -0.03647647      -0.00540121
H       -2.20069551       1.54448137      -3.37481519       0.01409398      -0.00200402       0.00934037
