45
Properties=species:S:1:pos:R:3:forces:R:3 charge=-1 spin=1 energy=-242.2849578857422 free_energy=-242.2849578857422 stress="-7.731554063639123e-08 1.3833036938137866e-08 -5.271908065651587e-08 1.3833036938137866e-08 -8.140137452983254e-08 9.119438004745462e-08 -5.271908065651587e-08 9.119438004745462e-08 -1.6858523110840906e-07" pbc="F F F"
C        1.39917259      -0.32436718       1.55400000       0.21370387      -0.00767770       0.32316053
B        1.43458490       0.50070336       3.03367304       0.00275709      -0.00309622      -0.00571053
B       -0.13058303       1.32002717       3.08780701       0.00353187       0.00223778      -0.00228783
B       -1.38949124       0.05564049       3.05860453      -0.00131655       0.00109385      -0.00040399
B        0.12807155      -0.21864823       3.97471308       0.00062328       0.00275498       0.00141983
B        1.15394923      -1.23073161       3.02651488       0.00031579      -0.00084268      -0.00582207
C        0.28633360      -1.46590009       1.56400000      -0.08155423      -0.06511202       0.01860788
B        0.74846492       1.22880690       1.55361767       0.00202355      -0.00332050      -0.00145340
B       -1.02640985       0.99386129       1.59191643       0.00088662       0.00141236      -0.00378448
B       -1.24683667      -0.78832007       1.48722128       0.00460625      -0.00306934      -0.00068647
B       -0.57110027      -1.51160339       3.01361960       0.00090005      -0.00254801      -0.00704018
C        1.14300000       0.92400000      -1.55300000       0.10512333       0.04022750      -0.18058464
B        1.61875510       0.20187481      -3.00247460      -0.00009878       0.00631111       0.00680837
B        0.67675668      -1.29204765      -3.05137095       0.00414376       0.00016800       0.00298933
B       -1.04746216      -0.83642539      -3.08045008      -0.00168084      -0.00208586       0.00002705
B        0.14879497       0.15684783      -3.97256448       0.00173277      -0.00058004      -0.00249441
B        0.50580081       1.55597113      -3.02848185       0.00198572       0.00058529       0.00625031
C       -0.40000000       1.32300000      -1.56800000      -0.18438712       0.27186531      -0.21946351
B        1.34395189      -0.74195128      -1.50722433      -0.00077817       0.00429214       0.00197798
B       -0.30173499      -1.43933724      -1.58363201       0.00019049      -0.00181592       0.00426915
B       -1.40469779      -0.02331835      -1.53387256       0.00436699       0.00743824       0.00223060
B       -1.12787134       0.92910379      -3.04693149      -0.00073396       0.00299649       0.00714312
Co       0.00000000       0.00000000       0.00000000      -0.07080206      -0.25574088       0.06447880
H        2.35637285      -0.53999446       1.07168726       0.00680825      -0.00040619      -0.00383832
H        2.47292625       0.91938908       3.44318162      -0.00052662      -0.00024284       0.00066851
H       -0.27360814       2.35105968       3.67147727       0.00076410       0.00300708       0.00001127
H       -2.44010463       0.17782085       3.61233834      -0.00422834       0.00313666      -0.00099225
H        0.13421394      -0.24106071       5.16462496      -0.00218763       0.00100907       0.00418252
H        1.96756158      -2.03712066       3.33892388      -0.00178421       0.00053830       0.00230330
H        0.49463839      -2.40230361       1.03914626      -0.00073667       0.00062878      -0.00640808
H        1.38066796       2.14417516       1.11156037      -0.00151797      -0.00254970      -0.00005563
H       -1.81536721       1.78935543       1.17040071      -0.00041687       0.00225741      -0.00003756
H       -2.15645466      -1.41175940       1.02616036       0.00166697       0.00158098      -0.00154769
H       -1.01275448      -2.54996206       3.39830237      -0.00306048       0.00178152       0.00012836
H        1.84517592       1.59486712      -1.04981879       0.00769395       0.00131334      -0.00029156
H        2.73582180       0.34964144      -3.39124399      -0.00244814       0.00060006      -0.00089179
H        1.08880766      -2.26381904      -3.60772814       0.00151326      -0.00148004      -0.00150073
H       -1.87376035      -1.47918805      -3.65408745      -0.00339130      -0.00507580      -0.00086253
H        0.17188284       0.16602802      -5.16233731      -0.00180037      -0.00052524      -0.00556968
H        0.80076295       2.66184950      -3.34440078      -0.00258386      -0.00079849      -0.00135338
H       -0.70762824       2.25125604      -1.07546747       0.00119950       0.00210720      -0.00160842
H        2.33616179      -1.21196059      -1.03345168      -0.00333076       0.00309788       0.00254424
H       -0.58715890      -2.51470625      -1.14463449       0.00265650      -0.00169549       0.00312649
H       -2.52036030       0.06063845      -1.11125797       0.00263387      -0.00145698       0.00156009
H       -2.01621076       1.60962330      -3.45788355      -0.00246316      -0.00232093       0.00080110
