45
Properties=species:S:1:pos:R:3:forces:R:3 charge=-1 spin=1 energy=-54314.477631585774 free_energy=-54314.477631585774 stress="1.5788499116897583 0.3287258446216583 0.5906214714050293 0.3287258446216583 0.48986560106277466 -0.31440481543540955 0.5906214714050293 -0.31440481543540955 1.2166619300842285" pbc="F F F"
C        0.51593765       1.34041275       1.55400000      -0.00285774      -0.22874165      -0.03311258
B       -0.32970938       1.48885941       3.00955128      -0.00091860       0.00241704       0.00131149
B       -1.35350847       0.04440767       3.07139106      -0.00172340       0.00360833       0.00072907
B       -0.28613586      -1.36903421       3.04942164      -0.00224036       0.00303816      -0.00148416
B        0.19037408       0.09219738       3.96600580      -0.00220395       0.00251241      -0.00189737
B        1.36484249       0.98244669       2.97210988      -0.00196405       0.00093257      -0.00056213
C        1.49148398       0.07953316       1.56400000      -0.61920059       0.09260673      -0.34871235
B       -1.12964280       0.89717294       1.53548069       0.00065191       0.00369842      -0.00006520
B       -1.13449223      -0.88977741       1.54524002       0.00015791       0.00264529       0.00170994
B        0.59157108      -1.36333786       1.49146025      -0.00330674       0.00043659       0.00031421
B        1.37907359      -0.79065176       2.99716508      -0.00269399       0.00019894      -0.00150638
C        1.14300000       0.92400000      -1.55300000      -0.51299524      -0.29594377       0.07835508
B        1.60682172       0.16336324      -2.98381596       0.00223740      -0.00067892      -0.00021234
B        0.64321952      -1.32207524      -3.03171896       0.00413511      -0.00120072       0.00075750
B       -1.06697551      -0.86307158      -3.05580763       0.00390957      -0.00147307       0.00266178
B        0.12995391       0.11261871      -3.96126842       0.00288695      -0.00199394       0.00331492
B        0.50390032       1.54549351      -2.97997101       0.00130373      -0.00176295       0.00065051
C       -0.40000000       1.32300000      -1.56800000       0.14736450       0.06228247       0.24038883
B        1.31831737      -0.76530708      -1.49053154       0.00363716       0.00192463       0.00120132
B       -0.33637287      -1.44226501      -1.52341039       0.00287298       0.00127652      -0.00084043
B       -1.42720745      -0.02889947      -1.51802422       0.00196034      -0.00229340       0.00030261
B       -1.14555777       0.89778316      -3.02131176       0.00079877      -0.00260553       0.00214484
Co       0.00000000       0.00000000       0.00000000       0.96287751       0.33730838       0.04749555
H        0.88604525       2.23992344       1.08473279       0.00115056       0.00531418      -0.00101493
H       -0.57938796       2.57265534       3.41603351       0.00233341       0.00396615       0.00049732
H       -2.39645635       0.06294092       3.63312126      -0.00206819       0.00502169       0.00046088
H       -0.54416061      -2.38644116       3.59945811      -0.00395582       0.00474715      -0.00153845
H        0.25433003       0.12789397       5.14964303      -0.00075356       0.00096403      -0.00295970
H        2.27158051       1.66736899       3.30152740       0.00017496      -0.00371767      -0.00147200
H        2.44003958       0.17556020       1.06098758       0.00487022       0.00037284      -0.00438478
H       -1.93682179       1.64507857       1.08409871       0.00667795       0.00323979       0.00164531
H       -2.03367242      -1.57419813       1.18350121      -0.00355319       0.00675441      -0.00065807
H        1.07803694      -2.34647888       1.04706094      -0.00847907      -0.00283661       0.00251650
H        2.34563867      -1.34594308       3.39555585      -0.00449386      -0.00156939      -0.00150317
H        1.82242012       1.60916151      -1.06986774       0.00404597       0.00359838       0.00037159
H        2.71273322       0.32204646      -3.37652111       0.00201931       0.00293231      -0.00101077
H        1.06170442      -2.29375250      -3.56505469       0.00515680      -0.00131389       0.00110490
H       -1.90114291      -1.48920902      -3.61814239       0.00610592      -0.00272346       0.00412999
H        0.15896615       0.17001415      -5.14547659       0.00000017      -0.00238265       0.00450455
H        0.78744645       2.64439553      -3.31417264      -0.00381597      -0.00164508       0.00026470
H       -0.67615872       2.25758910      -1.10462489      -0.00118696       0.00396620       0.00276708
H        2.29769246      -1.23928567      -1.01200504       0.00163727       0.00968029      -0.00182985
H       -0.63470198      -2.52648877      -1.14598945       0.00901707       0.00001442       0.00375161
H       -2.52834295       0.07364723      -1.09473246       0.00103770      -0.00709290      -0.00003473
H       -2.00705821       1.59378014      -3.43915330      -0.00060960      -0.00548275       0.00144716
