45
Properties=species:S:1:pos:R:3:forces:R:3 charge=-1 spin=1 energy=-242.23020935058594 free_energy=-242.23020935058594 stress="2.356562722738431e-09 -1.6194920959833325e-08 -2.9934021927857657e-09 -1.6194920959833325e-08 7.351958686285798e-08 2.764845419278572e-08 -2.9934021927857657e-09 2.764845419278572e-08 6.488080828148668e-08" pbc="F F F"
C       -1.13156712       0.94773237       1.59133557       0.01238343       0.00894666      -0.00728130
B       -1.54025442       0.22822207       3.04625338       0.00821009      -0.00444046       0.00667577
B       -0.50426500      -1.20081302       3.12134988       0.00037438      -0.00063969      -0.01094714
B        1.18579064      -0.63984692       3.12046688      -0.00054246      -0.00782880      -0.00372890
B       -0.06383898       0.29431254       4.00492664      -0.00595513      -0.01279673       0.00081353
B       -0.51092716       1.64830280       3.02718760      -0.01081366      -0.00069470      -0.00643838
C        0.39871644       1.45160538       1.58888818      -0.03947692       0.01058540       0.00017485
B       -1.20789209      -0.72812444       1.54206038       0.00162727      -0.00187390      -0.02042170
B        0.48149590      -1.32070651       1.63600000      -0.07541899       0.04917476      -0.14671162
B        1.46591061       0.16444962       1.55523402       0.01249376      -0.00094324       0.00745520
B        1.15991323       1.12223176       3.04238805       0.00807494      -0.00586018       0.01003749
C        1.14753610       0.95708862      -1.59174007      -0.02718964       0.02569601       0.02552727
B        1.62261848       0.24569928      -3.02829271      -0.01028729      -0.00940924      -0.01112456
B        0.69491111      -1.25455960      -3.09234668       0.00098354       0.00131865       0.01373486
B       -1.03042345      -0.81840288      -3.11443108       0.00136349      -0.00980979       0.00119440
B        0.15573149       0.19335132      -4.00243514       0.00391626      -0.01360488      -0.00079803
B        0.49880090       1.58990516      -3.04165400       0.00116621      -0.00109362      -0.00488066
C       -0.41759568       1.35541965      -1.61172387      -0.01066945      -0.00014314      -0.01067716
B        1.33735461      -0.70236893      -1.50622616      -0.00420660      -0.00911691       0.03545970
B       -0.27500000      -1.43300000      -1.61500000      -0.05382828       0.17573214       0.17698154
B       -1.39382259      -0.01569249      -1.57320041      -0.00761217       0.00991073      -0.00848584
B       -1.13490298       0.94534705      -3.06607831      -0.00968561      -0.00573546      -0.00856460
Co       0.00000000       0.00000000       0.00000000       0.20672619      -0.26190478      -0.03611350
H       -1.88402491       1.55578868       1.07998862      -0.00276859      -0.01130188      -0.00279295
H       -2.66119961       0.31508699       3.44092163      -0.01052588      -0.01154667       0.01247203
H       -0.85814601      -2.18274638       3.70204317       0.00254874       0.00033237      -0.01186952
H        2.05654941      -1.21322746       3.70229824      -0.00203285      -0.00465490      -0.00229437
H       -0.08098852       0.34287692       5.19358103       0.00635358      -0.01185806       0.00510766
H       -0.87103656       2.74098752       3.32098830      -0.00166931      -0.00395527       0.01986553
H        0.63563602       2.39140307       1.08101283       0.00168408       0.00590961      -0.00349890
H       -2.18176183      -1.27720168       1.11639088       0.00218335       0.01771534      -0.00984216
H        0.83578905      -2.39568941       1.24445716      -0.01387415       0.03133910       0.03009719
H        2.57099205       0.30016837       1.12193350      -0.00543970       0.01373604      -0.04618326
H        2.00900100       1.85901241       3.43787873       0.00604805       0.00716506       0.01162244
H        1.84786140       1.62346748      -1.08116319       0.01449710      -0.00130676       0.01745541
H        2.73900605       0.40104176      -3.41397444       0.01616174      -0.00462892      -0.01128344
H        1.12639791      -2.21336749      -3.65933282       0.00069258       0.00192208       0.01586717
H       -1.85077973      -1.46144567      -3.69650500       0.00196461      -0.00900169       0.00200405
H        0.18023238       0.22828936      -5.19154643      -0.00382591      -0.01590447      -0.00322895
H        0.78786243       2.69931383      -3.35001174      -0.00511287       0.00241116      -0.02571160
H       -0.72867185       2.28600910      -1.12609336       0.00307792       0.00057426      -0.01351035
H        2.34832848      -1.17224253      -1.07522353      -0.01522041       0.02877245       0.03588114
H       -0.55877289      -2.51956163      -1.20091528       0.01075158       0.02802736      -0.02448155
H       -2.50780723       0.04168717      -1.14173033      -0.00079030       0.00431896       0.01636676
H       -2.02780712       1.61637425      -3.48261223      -0.00633639      -0.00353363      -0.01392321
