45
Properties=species:S:1:pos:R:3:forces:R:3 charge=-1 spin=1 energy=-54314.2400808503 free_energy=-54314.2400808503 stress="-0.0017030888702720404 -0.13571040332317352 0.14977465569972992 -0.13571040332317352 -0.1553182303905487 0.06363245099782944 0.14977465569972992 0.06363245099782944 -0.002562879817560315" pbc="F F F"
C       -0.49113082       1.35296651       1.52740810      -0.00599147       0.01266754       0.01263900
B       -1.19758400       0.96788722       3.00931139       0.00687333      -0.00316971      -0.00342215
B       -0.99250958      -0.78302129       3.14444328       0.00660927      -0.00208384       0.00291802
B        0.74130612      -1.12545992       3.12323376       0.00663410       0.00132101       0.00533359
B        0.13446116       0.32215698       3.97957591      -0.00045813      -0.00796210       0.01338096
B        0.40126383       1.71327475       2.91560779      -0.00626915       0.00278909      -0.00145877
C        1.05168694       1.04476227       1.50566752      -0.01192970       0.00702912       0.00800895
B       -1.41589990      -0.07164407       1.57602616      -0.01992755      -0.00965578      -0.02043911
B       -0.21431714      -1.38930636       1.63600000      -0.24834117      -0.11185111      -0.24268419
B        1.36555914      -0.61244972       1.52793662       0.00562952       0.01530523       0.01777226
B        1.59235221       0.40857853       2.97912860      -0.00238774       0.00048209      -0.00137362
C        0.96675943       1.03151852      -1.56038628       0.00761527       0.00864911      -0.01503950
B        1.49008508       0.37990713      -3.02446007      -0.01223953       0.00496222      -0.00581737
B        0.66615558      -1.17953649      -3.12483366      -0.01111155       0.00062451      -0.01061061
B       -1.07465826      -0.87118259      -3.11290049      -0.00957141       0.00129132      -0.00150937
B        0.01624369       0.23851320      -3.99461875      -0.01208872      -0.00642623      -0.01294377
B        0.27128248       1.65711098      -2.96506732      -0.00269465      -0.00041900       0.00324002
C       -0.58239185       1.30500175      -1.54673938       0.01193857      -0.00148026      -0.00732710
B        1.31024450      -0.62943239      -1.56369340       0.01943985      -0.01558053       0.00752517
B       -0.27500000      -1.43300000      -1.61500000       0.06890932      -0.04855729       0.30592760
B       -1.47350475      -0.13073728      -1.53541122       0.00360327       0.00458817      -0.00582751
B       -1.31251523       0.87082902      -3.01021574      -0.00418612      -0.00549086       0.00894387
Co       0.00000000       0.00000000       0.00000000       0.22820179       0.21522549      -0.05109946
H       -0.81893228       2.25680894       1.03946020      -0.01635821      -0.00821205       0.01329304
H       -2.10616555       1.62808817       3.38424059       0.01010118      -0.01004264       0.01979684
H       -1.78225593      -1.43972152       3.73370629       0.01071628      -0.00574715       0.01292463
H        1.23297776      -2.03401447       3.70208592       0.00582222      -0.00188683       0.00211992
H        0.17402353       0.45011109       5.15695392       0.00943395      -0.00699902       0.02206446
H        0.63517641       2.84575109       3.16472594       0.00320704      -0.00489130       0.01747588
H        1.69859948       1.74767158       1.00676581      -0.00342266       0.00964791       0.00812157
H       -2.52985905      -0.07337352       1.17591388       0.00097790      -0.01394562       0.01581774
H       -0.44054117      -2.51160740       1.32535482       0.00490614       0.00382768       0.00431110
H        2.37996286      -1.04676205       1.10770318       0.01474332       0.01625280      -0.01238936
H        2.69253424       0.66874365       3.33114170      -0.00826181      -0.00621142       0.00646552
H        1.60178839       1.76419721      -1.08897688       0.00112675      -0.00871539      -0.01355887
H        2.57730430       0.65574897      -3.40380607      -0.01276209      -0.00197376      -0.01565331
H        1.16556029      -2.09060676      -3.69273021      -0.00480318      -0.00195078      -0.01056592
H       -1.86351695      -1.55015268      -3.67766404      -0.00087802      -0.00622511      -0.00534858
H        0.02568250       0.34441143      -5.17487998      -0.00714475      -0.00605971      -0.02130408
H        0.46501915       2.79114771      -3.24087211      -0.01131549      -0.00635539      -0.01776351
H       -0.93052740       2.20838726      -1.07283292      -0.00023591       0.00371899      -0.00937791
H        2.34811284      -1.02454303      -1.15565904      -0.00632799      -0.01006171      -0.00848217
H       -0.47056678      -2.55190568      -1.27407889      -0.00207983       0.00487019      -0.00468730
H       -2.57678419      -0.15630895      -1.11337730      -0.00805961       0.01373123       0.00258966
H       -2.24283546       1.50389619      -3.37862656       0.00235761      -0.01502933      -0.01198654
