45
Properties=species:S:1:pos:R:3:forces:R:3 charge=-1 spin=1 energy=-54314.427630441365 free_energy=-54314.427630441365 stress="-0.06544354557991028 0.2571192681789398 0.37465959787368774 0.2571192681789398 -0.560973584651947 0.2290029674768448 0.37465959787368774 0.2290029674768448 0.22326038777828217" pbc="F F F"
C       -1.42688927       0.26650805       1.49783285      -0.00543298      -0.00094548       0.00341824
B       -1.46645473      -0.55313202       2.96991296      -0.00314083       0.00222116       0.02091394
B        0.13310467      -1.28277996       3.12017468      -0.00777278      -0.00491818      -0.00373716
B        1.32865389       0.02646389       3.12058333      -0.01064200      -0.01606593       0.02402886
B       -0.23135018       0.24733719       3.96083882      -0.00279407       0.01371783       0.01088598
B       -1.27672261       1.20259048       2.89426874      -0.00907341      -0.00866902       0.02825573
C       -0.35829071       1.42938906       1.49919893      -0.00318355      -0.00720988      -0.00818179
B       -0.68409443      -1.26402897       1.52904221       0.00659172      -0.00381239       0.00755125
B        1.05819329      -0.92538152       1.63600000       0.09235840      -0.23447378      -0.35940987
B        1.22186898       0.83276472       1.53906558      -0.00082228      -0.00585898       0.00922116
B        0.45759997       1.55122583       2.97643684      -0.00048492      -0.01008865       0.03909593
C        0.98608750       1.02406576      -1.53101763       0.00633952       0.00475355      -0.00181544
B        1.52295935       0.35365093      -2.98085214       0.00064644       0.00639550      -0.01853377
B        0.68965207      -1.19703342      -3.09548337       0.00834605       0.00027625       0.00408515
B       -1.05455012      -0.87540561      -3.11716683       0.02028911      -0.00841972      -0.02528333
B        0.06213557       0.21922312      -3.97981477      -0.00538515       0.01201851      -0.01024018
B        0.31110876       1.64088913      -2.95095548       0.01614049      -0.00292921      -0.02422504
C       -0.56688905       1.30567143      -1.55177374       0.00605605      -0.00401067       0.00925772
B        1.31550763      -0.64412850      -1.51204481      -0.00345955      -0.01023876      -0.00527583
B       -0.27500000      -1.43300000      -1.61500000       0.08314816      -0.14816293       0.43832439
B       -1.46410414      -0.12537682      -1.55658104       0.00487751      -0.00410298      -0.01045644
B       -1.28127762       0.86887624      -3.02165848       0.00816745      -0.00844916      -0.03924107
Co       0.00000000       0.00000000       0.00000000      -0.16620234       0.34183735      -0.08805110
H       -2.35389040       0.44521640       0.97965628       0.00661738       0.01634456       0.01226060
H       -2.49792229      -0.99436182       3.34512991      -0.01056672       0.01125464       0.00466068
H        0.28962185      -2.29916767       3.70733732      -0.01188822       0.00365029       0.00284997
H        2.35585169      -0.03133455       3.70783841      -0.00191499      -0.00288005       0.00393920
H       -0.32751825       0.33776563       5.13927544      -0.00507134       0.00344014       0.00070445
H       -2.12483404       1.98313197       3.15849670       0.00403590       0.01127002      -0.00560590
H       -0.62174993       2.34675971       0.99729354      -0.00700615       0.01196159       0.03817497
H       -1.24629477      -2.21289878       1.09699476      -0.01052245      -0.00196976       0.02759788
H        1.90223343      -1.69407632       1.31456672       0.00347359      -0.01075042       0.01911693
H        2.11756924       1.46592649       1.08185147      -0.00727716       0.00465081       0.03565318
H        0.79814241       2.62279707       3.34805529       0.00307325       0.00411924      -0.00236441
H        1.61376520       1.74149961      -1.02985513      -0.01224165       0.00809134      -0.01077158
H        2.61434621       0.61414054      -3.35561633       0.00176416       0.01404473      -0.00435192
H        1.18419871      -2.11657946      -3.65425870       0.00643408       0.00993613      -0.00285544
H       -1.83557546      -1.55620845      -3.69149760       0.00413400      -0.00193181      -0.00433702
H        0.09244139       0.31686964      -5.16127831       0.00267864       0.00579537       0.00025664
H        0.51785627       2.76744204      -3.24538313      -0.00989367       0.00463920       0.00673298
H       -0.91443806       2.21033193      -1.07873014      -0.00311152       0.01138059      -0.03809485
H        2.33443420      -1.04784966      -1.06270664       0.01036931       0.00099086      -0.02556811
H       -0.48578166      -2.54492426      -1.26107938       0.00419336      -0.01174636      -0.01991215
H       -2.56375975      -0.14766885      -1.10639371       0.00297629       0.00389361      -0.04105715
H       -2.19742894       1.50674895      -3.41682957      -0.00482308       0.00095058       0.00238384
