45
Properties=species:S:1:pos:R:3:forces:R:3 charge=-1 spin=1 energy=-242.3166961669922 free_energy=-242.3166961669922 stress="1.3045671209965803e-08 -1.2433200247130571e-08 -1.7726426548847485e-08 -1.2433200247130571e-08 5.2361578184445534e-08 4.878850390355183e-08 -1.7726426548847485e-08 4.878850390355183e-08 7.21230151157215e-08" pbc="F F F"
C        1.00826714      -1.08394006       1.59177282      -0.00121830      -0.01686239      -0.01345029
B        1.50345504      -0.41847387       3.05018318      -0.00583348       0.00574762       0.01064355
B        0.65051267       1.13374553       3.10948729      -0.00365530       0.00712006       0.00776877
B       -1.09851302       0.78269583       3.10667896       0.00176385      -0.00220998      -0.00538456
B        0.02368896      -0.29411285       4.00168676      -0.00389342       0.00096536       0.00191336
B        0.30658955      -1.70134362       3.03775458      -0.00628175      -0.00265300      -0.01172038
C       -0.56577657      -1.39777609       1.58000802       0.02694324      -0.01989338       0.00584641
B        1.30398902       0.57280613       1.56332097      -0.01327923      -0.00466959      -0.01289532
B       -0.31217074       1.37063979       1.63600000       0.10317492      -0.02916539      -0.10974966
B       -1.45916428       0.01355961       1.52336291      -0.00286049       0.01019312       0.00123917
B       -1.28522405      -0.97399531       3.04293368      -0.00019629      -0.01159948      -0.01016504
C        1.13055199       0.97014103      -1.58286987       0.00500184       0.01642555       0.00248829
B        1.62396953       0.25153546      -3.01986125      -0.00357451       0.00228342      -0.00190989
B        0.70421884      -1.25791635      -3.07039930       0.00181630      -0.00569278      -0.00734416
B       -1.02572143      -0.82694870      -3.10626965       0.00414145      -0.00001238       0.00382923
B        0.15985423       0.18206345      -3.99961336       0.00105201      -0.00216528      -0.00019223
B        0.49490525       1.59109692      -3.05629255      -0.00655659       0.00331583       0.01365630
C       -0.42557458       1.36187039      -1.61421112       0.01960224       0.01737553      -0.01293349
B        1.34368351      -0.69334281      -1.51197915      -0.01194307       0.00816818       0.01344070
B       -0.27500000      -1.43300000      -1.61500000      -0.02878086       0.14256346       0.08668540
B       -1.38840070      -0.00968298      -1.56230428      -0.00579223      -0.01321301      -0.00581056
B       -1.13332252       0.94145674      -3.08185166      -0.00064978       0.00726891       0.00940571
Co       0.00000000       0.00000000       0.00000000      -0.00568329      -0.11420338       0.02509591
H        1.67348552      -1.77370277       1.06568359       0.00980824       0.00914583       0.01076467
H        2.60574499      -0.63613528       3.44966164      -0.00382811      -0.00075379       0.00484137
H        1.12277284       2.06722080       3.68392661      -0.00608848       0.00575779       0.00801712
H       -1.89337510       1.46391213       3.68186817      -0.00207037      -0.00987816      -0.01225002
H        0.02944409      -0.32406138       5.19205028      -0.00261781       0.00076973       0.00023589
H        0.52867631      -2.82768641       3.34364064      -0.00272681       0.00873625      -0.00259997
H       -0.91163684      -2.29052283       1.05104182       0.01817283       0.02464650      -0.00103482
H        2.33724131       0.98286067       1.12262227      -0.01069686       0.01788387      -0.01284003
H       -0.52692738       2.47667637       1.22867746      -0.00875246      -0.01845434      -0.00374673
H       -2.57027870       0.00225954       1.08743138      -0.01438968      -0.01572928       0.01270968
H       -2.22432187      -1.59609426       3.43368680      -0.00381811      -0.00144252      -0.00370136
H        1.82030900       1.63614758      -1.05716695      -0.00508194      -0.00291589      -0.00493926
H        2.74338690       0.40467102      -3.40102746      -0.00359944       0.00860778       0.00388645
H        1.14217750      -2.21927263      -3.62546185       0.00223318      -0.00638230      -0.00320315
H       -1.84301973      -1.47899739      -3.68348098       0.00505042       0.00357234       0.00839125
H        0.18357136       0.19163612      -5.19003177       0.00555350      -0.00509448       0.00052109
H        0.78139989       2.69819260      -3.37812263      -0.00810985      -0.00676873       0.00308768
H       -0.74035581       2.28284447      -1.11409054       0.00453329      -0.02047485      -0.00236929
H        2.34565984      -1.13949438      -1.03726222      -0.00852092      -0.01067458       0.01835114
H       -0.55983166      -2.51232159      -1.18313083      -0.00973408       0.01160650       0.00476777
H       -2.50742320       0.05600201      -1.15155129      -0.01616761       0.01358141      -0.01571430
H       -2.03212858       1.60213369      -3.50305887      -0.00244631      -0.00482598      -0.00363208
