45
Properties=species:S:1:pos:R:3:forces:R:3 charge=-1 spin=1 energy=-54314.414811151204 free_energy=-54314.414811151204 stress="1.651855707168579 0.21136438846588135 0.3223406672477722 0.21136438846588135 0.30500710010528564 -0.017983362078666687 0.3223406672477722 -0.017983362078666687 0.7765832543373108" pbc="F F F"
C        0.19622159       1.42281239       1.55400000       0.24677621      -0.02341533      -0.09429535
B       -0.65218083       1.39452979       3.01266374       0.01656571       0.00147065       0.00200019
B       -1.33606074      -0.23529600       3.07998074      -0.00138583      -0.00302663      -0.00718219
B        0.01508979      -1.38122235       3.05920202      -0.02238711       0.00335453       0.00103486
B        0.16348172       0.14862454       3.96942372       0.01094396       0.02459997       0.00449613
B        1.11268253       1.27040289       2.97056649       0.00310574       0.00607778      -0.01292804
C        1.43391587       0.41801347       1.56400000      -0.67856592      -0.20173630      -0.26920113
B       -1.30550210       0.64022499       1.53724434       0.00534534       0.00316851       0.00232805
B       -0.92006248      -1.10226957       1.55397716      -0.00927555       0.00468317      -0.00458992
B        0.86731137      -1.19317001       1.50164453      -0.00357723      -0.00905187       0.03479000
B        1.51565197      -0.45393036       2.99996878      -0.00887737      -0.00660624       0.00221136
C        1.14300000       0.92400000      -1.55300000      -0.48478195      -0.04784027       0.09642825
B        1.61286399       0.17566934      -2.98676337      -0.00436254       0.01187433      -0.00080521
B        0.66800265      -1.31893570      -3.02957910      -0.00577985      -0.00319656       0.00362480
B       -1.04768284      -0.87691533      -3.05186990       0.01354144      -0.01744770       0.00348888
B        0.13476987       0.10852258      -3.95921140       0.01425031       0.02103459      -0.00551076
B        0.49647353       1.54604979      -2.98122949      -0.00027912       0.00726132       0.01519797
C       -0.40000000       1.32300000      -1.56800000       0.05538202      -0.07618752       0.16060443
B        1.34009522      -0.75232954      -1.48755612       0.00090791       0.00976958      -0.00882425
B       -0.30689182      -1.44629237      -1.51841791       0.00488162      -0.00276517       0.00591737
B       -1.41765008      -0.04529770      -1.51834189      -0.00606693      -0.00933746      -0.02681420
B       -1.14568136       0.88494909      -3.01940603       0.00352433      -0.01149096      -0.00291952
Co       0.00000000       0.00000000       0.00000000       0.92553127       0.47258657       0.10630146
H        0.35949369       2.38208006       1.08285561      -0.00259530      -0.02038168       0.00852946
H       -1.12480580       2.40164880       3.41897617      -0.00987878      -0.00527672      -0.01608563
H       -2.35577876      -0.44344115       3.64563353      -0.00521954      -0.00085299      -0.00477849
H       -0.01287905      -2.42804802       3.61343933      -0.00514354      -0.00243110      -0.00660631
H        0.22484168       0.20393509       5.15184793      -0.01039386      -0.00588265       0.01395872
H        1.84722913       2.14010997       3.29264071      -0.00444057       0.00360186       0.00435725
H        2.33846879       0.72127193       1.06083216      -0.01239847      -0.00451153       0.01931335
H       -2.25140038       1.20030891       1.08584223       0.00908223      -0.00747770       0.02774810
H       -1.65004641      -1.96402728       1.19166190      -0.01267617      -0.00319229       0.02503493
H        1.55105706      -2.05560875       1.06763022      -0.01894453      -0.00072669       0.02235916
H        2.57971651      -0.78207755       3.40216513      -0.00374104      -0.00872864      -0.00981716
H        1.81773194       1.61797099      -1.07355271      -0.01624619      -0.01342115      -0.01221445
H        2.71460202       0.35123211      -3.38401204       0.00466646      -0.00943617       0.01234232
H        1.09444827      -2.28656481      -3.56342519       0.00335653      -0.00475283       0.00325510
H       -1.87566846      -1.51205875      -3.61286376       0.00159117      -0.00564639       0.00655932
H        0.16139916       0.16894886      -5.14258061       0.00066518      -0.01211353      -0.01571860
H        0.77084123       2.64747554      -3.31461388       0.00538401      -0.00138115      -0.00548120
H       -0.68213990       2.25779985      -1.10711403       0.00392638      -0.01677595      -0.01723554
H        2.33040304      -1.20438853      -1.01361086      -0.01252759       0.00497987      -0.02854001
H       -0.58943596      -2.53146072      -1.13259439       0.00710913      -0.01350399      -0.02515938
H       -2.52090233       0.04118081      -1.09735964       0.00659670      -0.01515591      -0.01987771
H       -2.01264107       1.57163345      -3.44229885      -0.00358823      -0.01071215       0.01270359
