45
Properties=species:S:1:pos:R:3:forces:R:3 charge=-1 spin=1 energy=-242.2323455810547 free_energy=-242.2323455810547 stress="-4.8479535053047584e-08 4.07288531789618e-08 -3.6022909100097422e-09 4.07288531789618e-08 -8.201768508797613e-08 1.2622324518929418e-08 -3.6022909100097422e-09 1.2622324518929418e-08 -2.2895163453995337e-07" pbc="F F F"
C       -0.02375840       1.43608271       1.55400000      -0.11216190       0.19671233       0.25692937
B       -0.85012566       1.25822721       3.02053065       0.00014343      -0.00130535      -0.00070415
B       -1.25914696      -0.45923523       3.06458962       0.00121143       0.00110094      -0.00151122
B        0.27373378      -1.36866788       3.05198444      -0.00436796       0.00274900       0.00363082
B        0.15557493       0.16485874       3.96698282      -0.00193441      -0.00023539      -0.00011794
B        0.89435409       1.41054441       3.02350480      -0.00181774       0.00202589       0.00118492
C        1.35308622       0.63246160       1.56400000       0.06790511      -0.06006905       0.14721054
B       -1.37108950       0.42381921       1.53019075      -0.00163335      -0.00094944       0.00795382
B       -0.69674591      -1.23856244       1.55089532      -0.00127475       0.00141311       0.00610393
B        1.08254862      -1.02452941       1.50313105      -0.00444737      -0.00121847       0.00008480
B        1.59152581      -0.19258570       3.01476204      -0.00168002      -0.00123398       0.00553321
C        1.14300000       0.92400000      -1.55300000       0.10776429      -0.05533871      -0.22385772
B        1.60846906       0.17602749      -2.99424000      -0.00195789       0.00368206       0.00279841
B        0.65968891      -1.31391225      -3.01941751       0.00087041       0.00021189       0.00207372
B       -1.06199361      -0.85504157      -3.05298551      -0.00060390      -0.00003088       0.00001289
B        0.13625113       0.11801424      -3.95861361      -0.00004979       0.00269926      -0.00081979
B        0.50137399       1.52997395      -3.03080274      -0.00104766      -0.00049336       0.00071771
C       -0.40000000       1.32300000      -1.56800000      -0.17356816       0.25864071      -0.25839624
B        1.34167958      -0.74269813      -1.48482753       0.00001696       0.00193285      -0.00654474
B       -0.31969316      -1.42812789      -1.52387695       0.00061607      -0.00032526      -0.00483094
B       -1.42112243      -0.01773348      -1.52623777       0.00348249       0.00309918       0.00118522
B       -1.13583311       0.90838796      -3.03688230       0.00201258       0.00274470       0.00219016
Co       0.00000000       0.00000000       0.00000000       0.11601973      -0.33489573       0.06424669
H       -0.05572111       2.42064637       1.07616726       0.00059192      -0.00703129       0.00322647
H       -1.51282506       2.16013143       3.42961213      -0.00003427       0.00077479       0.00005990
H       -2.23237476      -0.85695131       3.62977549       0.00220956       0.00173239      -0.00100702
H        0.39740117      -2.42054041       3.60239152      -0.00078307       0.00167181       0.00046094
H        0.16639969       0.17431752       5.15656886       0.00050405       0.00114851      -0.00021160
H        1.47503180       2.39403562       3.34651977       0.00060777       0.00188306      -0.00035769
H        2.22272131       1.07352337       1.06907249      -0.00124228       0.00009261      -0.00067846
H       -2.41278462       0.80854370       1.08950911      -0.00337574       0.00283881       0.00135278
H       -1.26612639      -2.21472943       1.15940980      -0.00257328      -0.00056192      -0.00094904
H        1.91886582      -1.75885565       1.07445026       0.00641939      -0.00413698      -0.00181196
H        2.70033860      -0.36069750       3.41680491       0.00161678       0.00101047       0.00090839
H        1.85853566       1.59525001      -1.06964662       0.00068553       0.00007739       0.00007834
H        2.72264561       0.31632549      -3.39223743      -0.00146219      -0.00024698      -0.00155297
H        1.06623737      -2.29901741      -3.55645444      -0.00070550      -0.00065163      -0.00099306
H       -1.88664638      -1.51069831      -3.61380097      -0.00126675      -0.00183456      -0.00006539
H        0.15625999       0.11402598      -5.14806991      -0.00150928       0.00036152      -0.00213301
H        0.79573636       2.63029302      -3.36529740      -0.00114001      -0.00222322       0.00048688
H       -0.70175052       2.26853260      -1.10561482       0.00168960      -0.00799588      -0.00362177
H        2.34219708      -1.21130343      -1.03610349       0.00642607      -0.00248064      -0.00115853
H       -0.61682281      -2.51038958      -1.11197676       0.00209106      -0.00301988       0.00227189
H       -2.53141133       0.08120029      -1.09646311      -0.00258480      -0.00125658       0.00012127
H       -2.01771306       1.58915826      -3.45984780       0.00033787      -0.00106834       0.00049978
