45
Properties=species:S:1:pos:R:3:forces:R:3 charge=-1 spin=1 energy=-242.26226806640625 free_energy=-242.26226806640625 stress="-4.664638098006435e-08 1.3199811021991081e-08 -4.087472404989967e-08 1.3199811021991081e-08 -1.0468016142795022e-07 3.553353167262685e-08 -4.087472404989967e-08 3.553353167262685e-08 -2.0278528722883493e-07" pbc="F F F"
C        0.82488729       1.17578015       1.55400000       0.09849930       0.20867376       0.28847742
B        0.06098929       1.51739337       3.02518105      -0.00278497       0.00055242      -0.00110562
B       -1.28299848       0.37446356       3.07243342      -0.00162271       0.00212812      -0.00458014
B       -0.58333025      -1.26733245       3.04864088      -0.00526161       0.00067887      -0.00250967
B        0.23115149       0.03554951       3.96792450      -0.00272747       0.00083726       0.00053240
B        1.55930952       0.60774747       3.02595874      -0.00035878       0.00113678      -0.00176920
C        1.46642135      -0.28365195       1.56400000       0.00998098      -0.11846954       0.11248875
B       -0.85614008       1.15948142       1.54095568       0.00006523       0.00084221      -0.00094685
B       -1.30013224      -0.58174181       1.56310342      -0.00110084       0.00259317       0.00092216
B        0.25989596      -1.45652897       1.48365611       0.00486547       0.00460905      -0.00385766
B        1.17458139      -1.09692959       3.00971902      -0.00260187      -0.00292957      -0.00188562
C        1.14300000       0.92400000      -1.55300000       0.09844348       0.02699155      -0.22147013
B        1.61190446       0.19539069      -3.00132374       0.00076627      -0.00324529       0.00291170
B        0.67146243      -1.29661327      -3.04351559       0.00200994      -0.00157723       0.00554831
B       -1.05437836      -0.84456150      -3.06739857       0.00205989      -0.00557587       0.00237662
B        0.13662500       0.14377353      -3.96693128       0.00140449      -0.00305185      -0.00010864
B        0.49698385       1.54620581      -3.02741486       0.00187678      -0.00107171       0.00040016
C       -0.40000000       1.32300000      -1.56800000      -0.21205418       0.26782113      -0.23407568
B        1.35102966      -0.73847247      -1.50550119       0.00139177       0.00433673       0.00097986
B       -0.30484455      -1.43367615      -1.55551757       0.00403905      -0.00071371      -0.00092891
B       -1.40753384      -0.03135036      -1.51964393       0.00326961       0.00527799       0.00528824
B       -1.13671476       0.91814420      -3.03619653      -0.00298904      -0.00436865      -0.00002534
Co       0.00000000       0.00000000       0.00000000       0.02097681      -0.37828499       0.04650783
H        1.38912717       1.98707141       1.08305795      -0.00055844      -0.00185134       0.00193746
H        0.06113524       2.63578664       3.43687501       0.00051951       0.00129300       0.00028139
H       -2.29904673       0.62586300       3.64593548      -0.00043067       0.00190938      -0.00216401
H       -1.09729836      -2.19476340       3.59718345      -0.00439156      -0.00017740      -0.00002716
H        0.24985076       0.03253318       5.15749108      -0.00236638      -0.00033335       0.00242700
H        2.60890992       1.05936789       3.34760142       0.00187248       0.00005665       0.00234586
H        2.42207955      -0.44424478       1.05839814      -0.00370425      -0.00062466       0.00155924
H       -1.46432673       2.07931424       1.07610083       0.00077408       0.00079467       0.00225982
H       -2.34269449      -1.01250192       1.16455926      -0.00212731       0.00320110      -0.00013672
H        0.50103616      -2.53475375       1.02940953      -0.00292988       0.00128635      -0.00275377
H        1.96954055      -1.89252162       3.40369149      -0.00056140      -0.00254177       0.00105655
H        1.85262764       1.60218041      -1.06927671      -0.00128557      -0.00086628      -0.00199046
H        2.72538248       0.34531015      -3.39835615      -0.00032759       0.00044440      -0.00029778
H        1.07912016      -2.27296397      -3.59548641       0.00126883       0.00005886       0.00202931
H       -1.88107641      -1.49376560      -3.63324306       0.00000319      -0.00385705       0.00084561
H        0.15472692       0.15246364      -5.15651285      -0.00121441      -0.00234579      -0.00153443
H        0.78895134       2.65026521      -3.35149776      -0.00081052       0.00140497      -0.00217703
H       -0.70974209       2.25704783      -1.08858663      -0.00007297      -0.00184991      -0.00220861
H        2.33795196      -1.20613414      -1.02066587      -0.00273760       0.00158247       0.00198168
H       -0.58008159      -2.52329337      -1.14844765       0.00399509      -0.00173005       0.00266229
H       -2.51903809       0.05313828      -1.08651106       0.00003440      -0.00239840       0.00065263
H       -2.02558549       1.59623000      -3.44906332      -0.00309637      -0.00064619       0.00008109
