45
Properties=species:S:1:pos:R:3:forces:R:3 charge=-1 spin=1 energy=-242.25088500976562 free_energy=-242.25088500976562 stress="-3.888881394686905e-08 1.280109529488982e-08 -4.341823256481803e-08 1.280109529488982e-08 -1.0315470433397422e-07 3.6186655449910177e-08 -4.341823256481803e-08 3.6186655449910177e-08 -2.1173637776428222e-07" pbc="F F F"
C        0.74085963       1.23045724       1.55400000       0.09461269       0.22837342       0.28130126
B       -0.04567350       1.51849058       3.02435665      -0.00072672       0.00354121       0.00171510
B       -1.30922041       0.28806408       3.06941520      -0.00298636       0.00047896      -0.00066188
B       -0.50019888      -1.30346031       3.04472807      -0.00299544       0.00033033       0.00062148
B        0.22309100       0.05087422       3.96602362      -0.00027772       0.00021431       0.00073613
B        1.51113216       0.71276703       3.02627663       0.00259949       0.00152763       0.00176975
C        1.48263578      -0.18066860       1.56400000      -0.00381428      -0.12759778       0.11998844
B       -0.93506673       1.10115327       1.53906026       0.00325655      -0.00354597       0.00182077
B       -1.26072349      -0.66589233       1.56010252      -0.00122756       0.00097609      -0.00440967
B        0.35674482      -1.43360625       1.48261557       0.00473501      -0.00699899       0.00467058
B        1.24288755      -1.01468050       3.00749929      -0.00060111      -0.00318329       0.00123067
C        1.14300000       0.92400000      -1.55300000       0.10715362       0.05075172      -0.21152809
B        1.61321494       0.19276363      -2.99916799       0.00291256      -0.00080475      -0.00079510
B        0.67689804      -1.30057116      -3.03710230       0.00035433      -0.00386372       0.00179198
B       -1.05088843      -0.85263613      -3.06117265       0.00086896      -0.00341365      -0.00120574
B        0.13725323       0.13593041      -3.96372534       0.00020184      -0.00072367       0.00013909
B        0.49558940       1.54164134      -3.02820671       0.00013982       0.00283747      -0.00176445
C       -0.40000000       1.32300000      -1.56800000      -0.21641880       0.23214075      -0.24919748
B        1.35524031      -0.73674482      -1.50078350      -0.00173283       0.00038986      -0.00053574
B       -0.29994557      -1.43623797      -1.54992566      -0.00018489      -0.00565466       0.00748676
B       -1.40656089      -0.03438157      -1.51739642      -0.00320071       0.00189833      -0.00551963
B       -1.13760610       0.91083224      -3.03379425      -0.00233690      -0.00112575      -0.00180119
Co       0.00000000       0.00000000       0.00000000       0.02389826      -0.35602051       0.05414014
H        1.24835859       2.07889834       1.08354564      -0.00189106       0.00004886       0.00184509
H       -0.12147563       2.63421236       3.43692291       0.00124238      -0.00211865      -0.00022866
H       -2.34134164       0.47014121       3.64056720       0.00180830       0.00097200       0.00025117
H       -0.95320262      -2.26287232       3.59246336       0.00031954       0.00122333      -0.00203536
H        0.23970025       0.04796084       5.15572899      -0.00060623      -0.00091801      -0.00065930
H        2.52697124       1.23503280       3.35054952      -0.00338432      -0.00280350       0.00030702
H        2.44741977      -0.27577655       1.05843793      -0.00773768      -0.00205078       0.00001788
H       -1.60362616       1.97944154       1.07783694      -0.00036116       0.00314469      -0.00500307
H       -2.27487776      -1.16413085       1.16618067       0.00235750       0.00272693       0.00076833
H        0.66899665      -2.48941405       1.01869089      -0.00134405       0.00090332       0.00257383
H        2.08905490      -1.75481970       3.40361103      -0.00340013       0.00039738      -0.00237928
H        1.85211324       1.60414568      -1.07086568       0.00097159      -0.00269734      -0.00109187
H        2.72591885       0.34474266      -3.39814930      -0.00224578      -0.00047865       0.00166136
H        1.08636401      -2.27743975      -3.58695202       0.00126667       0.00059055       0.00243980
H       -1.87573563      -1.50570092      -3.62557706       0.00091736      -0.00184551       0.00151327
H        0.15311230       0.14209986      -5.15339234       0.00059999      -0.00288998       0.00039294
H        0.78548067       2.64536649      -3.35624984      -0.00110921      -0.00335631      -0.00037572
H       -0.71057920       2.25846648      -1.09183155      -0.00099052      -0.00134069      -0.00046766
H        2.33703219      -1.19893895      -1.00142034       0.00558102      -0.00053159       0.00130522
H       -0.56547444      -2.52746348      -1.13922286       0.00082363       0.00460736      -0.00187773
H       -2.51861078       0.04865787      -1.08519026       0.00138789      -0.00093092       0.00016619
H       -2.02811532       1.58598177      -3.44858289       0.00156413      -0.00318018       0.00088334
