45
Properties=species:S:1:pos:R:3:forces:R:3 charge=-1 spin=1 energy=-54314.44320775765 free_energy=-54314.44320775765 stress="0.8082975745201111 0.32466983795166016 -0.3317963182926178 0.32466983795166016 1.0880018472671509 -1.077371597290039 -0.3317963182926178 -1.077371597290039 0.8268957138061523" pbc="F F F"
C        1.15228953      -0.85739538       1.55400000      -0.25169373       0.09004651       0.01281127
B        1.52447517      -0.09747679       3.02260945       0.00431017       0.00519149      -0.00861211
B        0.40397199       1.27051692       3.11726165      -0.00831541      -0.00248417       0.00519664
B       -1.24133460       0.61609322       3.09961847      -0.00097909      -0.00042455      -0.00008318
B        0.04851484      -0.24363841       3.98942403       0.01050529       0.00031714       0.00318884
B        0.58922895      -1.59342161       2.96672915       0.00294425      -0.00513654      -0.00943587
C       -0.32448624      -1.45792959       1.56400000       0.17679970       0.51357514      -0.37819895
B        1.15229552       0.84001123       1.56690661      -0.02584117       0.00736533       0.00307951
B       -0.56445229       1.31911721       1.60791644       0.00224082       0.01943536      -0.02028003
B       -1.47788688      -0.21401363       1.53371547      -0.01261226      -0.00400350      -0.01946810
B       -1.12263816      -1.14259301       3.01326360      -0.00642025       0.00738512       0.00848925
C        1.14300000       0.92400000      -1.55300000      -0.41462952      -0.26292199       0.22486414
B        1.61800779       0.16499199      -2.98493284       0.00485762       0.00248764       0.00468964
B        0.65625412      -1.31868115      -3.05774599      -0.00727809       0.00991884      -0.01538704
B       -1.05281936      -0.85552766      -3.09798562       0.00019758       0.00770687      -0.00612844
B        0.15294588       0.12320352      -3.97851282       0.00787416       0.00852526      -0.00851550
B        0.51736484       1.54721956      -2.97889808      -0.00169545       0.01166774       0.00858049
C       -0.40000000       1.32300000      -1.56800000       0.08413977      -0.01192502       0.18291172
B        1.31213051      -0.76040853      -1.50399667      -0.02887307      -0.01116961      -0.00111250
B       -0.33686324      -1.43602680      -1.57367328       0.00209846      -0.02340594       0.01083216
B       -1.42866018      -0.02522158      -1.56535867      -0.01570782       0.00634614       0.01493380
B       -1.12935387       0.90799061      -3.04366581      -0.00239859      -0.00421231      -0.01432581
Co       0.00000000       0.00000000       0.00000000       0.29966468      -0.39708987       0.04137612
H        1.91114323      -1.44115812       1.06310725      -0.00849934       0.00759333       0.01467354
H        2.63815966      -0.14362421       3.41903662       0.00870284      -0.00765649       0.00437010
H        0.70801821       2.26445220       3.68667452       0.00787490      -0.00210754      -0.00037315
H       -2.15114132       1.12562257       3.66282121       0.00053405       0.00304527       0.00301549
H        0.07732655      -0.33484192       5.17115185       0.00038432       0.00109854       0.00922039
H        1.00955706      -2.65330208       3.27491958       0.00436185      -0.00705671       0.00571193
H       -0.47989946      -2.39089506       1.05070430       0.00360682      -0.00062184      -0.00003315
H        2.08443488       1.43610748       1.13171837       0.02649435       0.01078267       0.01069609
H       -0.98740064       2.37416298       1.24635572       0.01281745      -0.02905200       0.01189981
H       -2.56289849      -0.41204888       1.10664228       0.01884304      -0.01179016      -0.00575617
H       -1.91015340      -1.93440161       3.40361684       0.00112598      -0.00109673       0.00360825
H        1.81462899       1.59610290      -1.04844614      -0.00437482      -0.00479099      -0.00987758
H        2.72769828       0.32103922      -3.36313943       0.01309401       0.01512314      -0.00788263
H        1.08277884      -2.28967414      -3.58655339       0.01092931       0.00737481      -0.00682838
H       -1.88565981      -1.47807275      -3.66666897       0.00528764       0.00043970      -0.00941855
H        0.19498680       0.19063847      -5.16118102       0.00325811       0.00741531      -0.01382623
H        0.80551761       2.64505453      -3.30477321       0.00477671       0.01178140      -0.00206662
H       -0.67203912       2.25460012      -1.10039392       0.00118069       0.00261766       0.00094030
H        2.28872367      -1.24317516      -1.02980954       0.03665963      -0.01121002      -0.02160959
H       -0.63989784      -2.52426332      -1.19160270       0.00807129       0.02731986      -0.02230429
H       -2.53800494       0.06704335      -1.16637287       0.02101016       0.01092522      -0.00030978
H       -1.98640453       1.60595816      -3.46532851       0.00467260       0.00267044      -0.00325628
