45
Properties=species:S:1:pos:R:3:forces:R:3 charge=-1 spin=1 energy=-54314.42887594002 free_energy=-54314.42887594002 stress="1.5255547761917114 0.25596219301223755 0.5500362515449524 0.25596219301223755 0.4981657564640045 -0.4935561418533325 0.5500362515449524 -0.4935561418533325 1.0414484739303589" pbc="F F F"
C        0.82488729       1.17578015       1.55400000      -0.16637343      -0.23009118       0.04463967
B        0.04017075       1.52234569       3.01266808      -0.00221209      -0.00093787      -0.00179664
B       -1.29577841       0.35994518       3.08183974       0.00035513      -0.00034104      -0.00543820
B       -0.59312660      -1.26577561       3.05909356       0.00019062       0.00211166      -0.00061028
B        0.21710716       0.04390793       3.97181804       0.00143406      -0.00113482      -0.00244113
B        1.56406660       0.62821668       2.97143898       0.00038318      -0.00075040       0.00034497
C        1.46642135      -0.28365195       1.56400000      -0.46330437       0.33997178      -0.36070681
B       -0.88179222       1.13265164       1.54489329      -0.00066031       0.00004981       0.00126287
B       -1.30770551      -0.60381640       1.55711028      -0.00360379       0.00254254      -0.00070208
B        0.25794976      -1.46812762       1.49536770       0.00629024      -0.00060767      -0.00067769
B        1.15917578      -1.09705948       3.00145991      -0.00080379      -0.00135169      -0.00210307
C        1.14300000       0.92400000      -1.55300000      -0.50160420      -0.39691940       0.01321377
B        1.60587035       0.16805390      -2.98880713      -0.00097833      -0.00337047       0.00233960
B        0.63224080      -1.31088253      -3.05137393      -0.00033012      -0.00016404       0.00638586
B       -1.07477214      -0.84188763      -3.07451066       0.00252972      -0.00011293       0.00215021
B        0.13090759       0.13240246      -3.97098179      -0.00172450       0.00037312       0.00270343
B        0.50978257       1.55414853      -2.97730304      -0.00114642       0.00004962      -0.00078121
C       -0.40000000       1.32300000      -1.56800000       0.22466134       0.20778276       0.28988251
B        1.30570773      -0.77029714      -1.50577788       0.00023420      -0.00117478      -0.00020282
B       -0.35298751      -1.43487530      -1.54604035       0.00287333      -0.00381282       0.00188004
B       -1.43118206      -0.01574229      -1.52764868      -0.00103241       0.00490733       0.00075006
B       -1.14279412       0.91654156      -3.02729085      -0.00100729      -0.00127932       0.00140776
Co       0.00000000       0.00000000       0.00000000       0.93217027       0.11068013       0.00662131
H        1.39970081       1.96237913       1.09002342      -0.00702653      -0.00162211       0.00145146
H        0.05642589       2.63578651       3.41579867      -0.00118005      -0.00156518       0.00222859
H       -2.30366831       0.62805379       3.64454107       0.00321587      -0.00155618      -0.00202708
H       -1.08495808      -2.19159071       3.61117788       0.00025939       0.00111777      -0.00031282
H        0.29242301       0.06571094       5.15510701      -0.00164910      -0.00034038      -0.00198776
H        2.61022898       1.07639858       3.29315218       0.00076158       0.00055978       0.00445972
H        2.41129285      -0.41250698       1.06283032      -0.00764397      -0.00271340       0.00225745
H       -1.49609662       2.04943537       1.09983367      -0.00070104      -0.00059499      -0.00234920
H       -2.34495775      -1.05889802       1.20535730      -0.00013829       0.00078262      -0.00284524
H        0.50323725      -2.53862372       1.05535965      -0.00374584      -0.00134283      -0.00204146
H        1.96934907      -1.86482523       3.39476530      -0.00156375       0.00015426       0.00329275
H        1.82596682       1.60622272      -1.07261317      -0.00062076      -0.00672798      -0.00178700
H        2.71395005       0.32468563      -3.37673568      -0.00245769      -0.00238560      -0.00264696
H        1.04905675      -2.28170903      -3.58823288      -0.00272021       0.00249993       0.00218423
H       -1.91063929      -1.46173964      -3.64082579       0.00094148       0.00065625       0.00167050
H        0.16283156       0.19903140      -5.15456820      -0.00093411      -0.00255491       0.00234283
H        0.79667710       2.65531798      -3.29937571       0.00013180       0.00057539      -0.00544445
H       -0.66990091       2.25729027      -1.10148259      -0.00250393      -0.00530400      -0.00359879
H        2.28188795      -1.26153976      -1.03700747       0.00030250      -0.00078426       0.00438525
H       -0.66140533      -2.52095438      -1.18459640       0.00112479       0.00020136       0.00458668
H       -2.53302682       0.09458739      -1.10966333      -0.00007173      -0.00332167       0.00131671
H       -1.99982117       1.62176561      -3.43783841      -0.00012160      -0.00215376      -0.00325721
