45
Properties=species:S:1:pos:R:3:forces:R:3 charge=-1 spin=1 energy=-54314.50810910958 free_energy=-54314.50810910958 stress="0.7647490501403809 0.5137592554092407 -0.4875175654888153 0.5137592554092407 0.5245426297187805 0.343900203704834 -0.4875175654888153 0.343900203704834 1.5282365083694458" pbc="F F F"
C       -1.20385205       0.78335065       1.55400000       0.13921425       0.02027501      -0.23346192
B       -1.52943303      -0.00684579       3.00029132       0.01004060       0.00392160       0.00127052
B       -0.31703602      -1.29216685       3.08567099       0.00400824      -0.00291233       0.00584551
B        1.27879569      -0.52759592       3.08574614       0.00407861      -0.00891144      -0.01095883
B       -0.07194708       0.23680508       3.97574647       0.00547749      -0.00476945       0.00273210
B       -0.69734993       1.55541216       2.96346945       0.00876897      -0.00685566       0.00338684
C        0.23230179       1.47542736       1.56400000      -0.29169002      -0.40884367      -0.28099191
B       -1.09204830      -0.92163247       1.52786259      -0.01656524       0.02330479      -0.01782887
B        0.65503658      -1.27247858       1.56907030      -0.01601319      -0.01478887       0.00450669
B        1.45928623       0.31776930       1.52875103      -0.01336939      -0.02583285       0.02887337
B        1.04401101       1.21847644       3.01598556       0.01391107      -0.00227580      -0.00555348
C        1.14300000       0.92400000      -1.55300000      -0.45507416      -0.25852010       0.22903164
B        1.60521608       0.15734650      -2.96994364      -0.00968513      -0.00179536       0.00608783
B        0.62748235      -1.31586221      -3.02780101      -0.00037061      -0.00623908       0.00037750
B       -1.07653722      -0.84225363      -3.07209543       0.00010547      -0.01081091       0.01315781
B        0.13725136       0.12557182      -3.96166329      -0.00254439      -0.00584390      -0.00040220
B        0.51587559       1.55233079      -2.97500874      -0.00870756      -0.00958399      -0.00244376
C       -0.40000000       1.32300000      -1.56800000       0.18506601       0.15561816       0.09699047
B        1.29930647      -0.77435085      -1.46865528       0.01762171       0.02924705       0.02129657
B       -0.35982459      -1.42904491      -1.52484921       0.02125152      -0.01039800       0.00193042
B       -1.43517726      -0.01112341      -1.54121610       0.01969259      -0.01784373      -0.03190443
B       -1.13994231       0.91977703      -3.03300570      -0.01249742      -0.00447026       0.00290633
Co       0.00000000       0.00000000       0.00000000       0.37506038       0.67511165       0.15139908
H       -2.00009990       1.31208716       1.05352354      -0.00588896      -0.00517864       0.00439935
H       -2.64578252      -0.03804607       3.39326334       0.01144829      -0.00222712      -0.00383475
H       -0.54934420      -2.30479511       3.65403607       0.00062688      -0.01063657      -0.00825476
H        2.21499427      -0.98156359       3.65340602       0.00025753      -0.00854107      -0.01566667
H       -0.11332816       0.31610180       5.15804384       0.01175585      -0.00960567       0.00475421
H       -1.18885614       2.58611321       3.27352917       0.00880289      -0.00332112       0.00302225
H        0.32404996       2.43122175       1.07076631      -0.00831283       0.01521166       0.00250903
H       -1.98185187      -1.57369965       1.09602015      -0.01909959      -0.00450463      -0.00112832
H        1.15353123      -2.29162800       1.22373100      -0.01012244      -0.00659780      -0.00134610
H        2.51684635       0.59467655       1.06530244       0.01111369      -0.00574810      -0.00290580
H        1.77009977       2.06426340       3.41571360       0.01477395      -0.00229334      -0.00386214
H        1.82056392       1.58908468      -1.04275669       0.00600397      -0.00390453      -0.00680621
H        2.71511589       0.30234108      -3.35641772      -0.01240410      -0.00691318       0.00865707
H        1.03992929      -2.28750709      -3.56472654       0.00294713      -0.01213631       0.01480268
H       -1.90901684      -1.46180961      -3.64463275       0.00374437      -0.00988145       0.01622034
H        0.17889117       0.18650707      -5.14512356      -0.00638859      -0.01665043      -0.00299020
H        0.80737340       2.65178189      -3.30176953      -0.00616674      -0.00772291      -0.00460788
H       -0.66740661       2.26724597      -1.11623965       0.00428746       0.01521931      -0.00679973
H        2.27287232      -1.26248205      -1.00450304       0.02429762      -0.00370034       0.00530130
H       -0.67217238      -2.51150735      -1.15436613       0.00858383      -0.00656351       0.00857510
H       -2.53239906       0.10229122      -1.10085328      -0.00465970      -0.00624362       0.00503574
H       -1.98973821       1.62949932      -3.45323454      -0.01338061      -0.00484356      -0.00132131
