45
Properties=species:S:1:pos:R:3:forces:R:3 charge=-1 spin=1 energy=-242.25680541992188 free_energy=-242.25680541992188 stress="-4.2096257146795324e-08 1.034653340781233e-08 -4.32461781940674e-08 1.034653340781233e-08 -1.0681934980993901e-07 3.634047374134752e-08 -4.32461781940674e-08 3.634047374134752e-08 -2.1758950197181548e-07" pbc="F F F"
C        0.78335065       1.20385205       1.55400000       0.10234573       0.22446923       0.28199869
B        0.00737424       1.51935605       3.02421473      -0.00079282      -0.00351799       0.00291593
B       -1.29836166       0.33369529       3.06955124      -0.00001630      -0.00199986      -0.00240245
B       -0.54525346      -1.28548967       3.04471850      -0.00200359       0.00472882       0.00026657
B        0.22448942       0.04304157       3.96613088       0.00407290      -0.00000229      -0.00170695
B        1.53547838       0.65969125       3.02596400      -0.00686461      -0.00155943       0.00608458
C        1.47542736      -0.23230179       1.56400000      -0.01590857      -0.12667972       0.12612952
B       -0.89588319       1.13291387       1.53915456      -0.00354533       0.00359327      -0.00168303
B       -1.28345669      -0.62168856       1.56036856       0.00339314       0.00304587      -0.00056045
B        0.30619220      -1.44500702       1.48179803       0.00434598       0.00060925       0.00828689
B        1.20722526      -1.05740901       3.00730747      -0.00875508      -0.00020195       0.00474418
C        1.14300000       0.92400000      -1.55300000       0.10554621       0.05206364      -0.21147512
B        1.61340453       0.19295120      -2.99903308      -0.00325970      -0.00346353      -0.00273399
B        0.67710019      -1.30043690      -3.03735063      -0.00323419      -0.00174005       0.00414939
B       -1.05114219      -0.85244989      -3.06107856       0.00434679      -0.00270763      -0.00143835
B        0.13730814       0.13572900      -3.96380310      -0.00106757       0.00346428       0.00124113
B        0.49582471       1.54190196      -3.02797041      -0.00369775      -0.00463734      -0.00476571
C       -0.40000000       1.32300000      -1.56800000      -0.21798436       0.23692057      -0.24958497
B        1.35501076      -0.73641753      -1.50093334       0.00319740      -0.00426386       0.00142117
B       -0.30010642      -1.43664102      -1.55025653       0.00343223       0.00583142       0.00038931
B       -1.40636633      -0.03452311      -1.51666299      -0.00046045       0.00279228      -0.00685525
B       -1.13773838       0.91119596      -3.03366056       0.00245728      -0.00631738      -0.00382952
Co       0.00000000       0.00000000       0.00000000       0.02110264      -0.35510474       0.05624295
H        1.32019050       2.03384743       1.08355021       0.00038245       0.00073718       0.00000004
H       -0.02956473       2.63668790       3.43684929       0.00137645       0.00337744       0.00125332
H       -2.32350218       0.55145695       3.64045680      -0.00033820       0.00163727       0.00153372
H       -1.03164609      -2.22826194       3.59260877       0.00087104       0.00027473      -0.00207265
H        0.24126918       0.03963314       5.15592937      -0.00048959      -0.00097057      -0.00304155
H        2.56854560       1.14617373       3.35051030       0.00083154      -0.00078356       0.00088042
H        2.43597450      -0.36072604       1.05901517       0.00406664      -0.00234297      -0.00365666
H       -1.53383932       2.03437884       1.07800220       0.00397854      -0.00332985      -0.00116709
H       -2.31402556      -1.08411435       1.16621225      -0.00118016       0.00064238      -0.00377095
H        0.58170817      -2.51087990       1.01871068      -0.00023328      -0.00674777       0.00241776
H        2.02665272      -1.82660525       3.40380328      -0.00093326      -0.00128520      -0.00249891
H        1.85186710       1.60423495      -1.07092636       0.00106287      -0.00053941       0.00076212
H        2.72573332       0.34470494      -3.39818433       0.00365296       0.00072659       0.00047401
H        1.08619109      -2.27736071      -3.58704395       0.00250338      -0.00118594       0.00154995
H       -1.87573839      -1.50556395      -3.62567477      -0.00007477      -0.00189973       0.00141276
H        0.15307078       0.14231037      -5.15358572       0.00058124      -0.00298037       0.00312077
H        0.78548009       2.64535158      -3.35618961       0.00027072       0.00114125      -0.00111514
H       -0.71045857       2.25843966      -1.09189758      -0.00087065      -0.00208288       0.00130671
H        2.33687437      -1.19903635      -1.00139130       0.00242020      -0.00072901      -0.00849812
H       -0.56538885      -2.52713364      -1.13931706      -0.00369684      -0.00536637       0.00162730
H       -2.51858950       0.04872290      -1.08526999      -0.00077760      -0.00203006       0.00198530
H       -2.02814864       1.58612433      -3.44865009      -0.00005318      -0.00158548       0.00066245
