45
Properties=species:S:1:pos:R:3:forces:R:3 charge=-1 spin=1 energy=-242.26968383789062 free_energy=-242.26968383789062 stress="-1.2441108587779581e-08 6.11609163314597e-09 -3.610671228670981e-08 6.11609163314597e-09 2.88302910433913e-08 3.285249050577477e-08 -3.610671228670981e-08 3.285249050577477e-08 3.173445506376993e-08" pbc="F F F"
C        0.79822483       1.24659673       1.59574102       0.01293907       0.01391671       0.01976746
B        0.02695462       1.55719982       3.05049764      -0.00566217      -0.01346811       0.00528804
B       -1.25968328       0.34644062       3.11261676       0.00662318      -0.00224727       0.00392804
B       -0.48143573      -1.25905693       3.10548207      -0.00134550      -0.00236970      -0.00147153
B        0.27800992       0.09161367       4.00284203      -0.00380363      -0.00144880       0.00154863
B        1.57025387       0.71729216       3.03834776      -0.01194341      -0.00473289       0.01471689
C        1.49728392      -0.19530871       1.58852114      -0.00436080      -0.02807763       0.01758999
B       -0.87209326       1.12146329       1.55761909      -0.01147095       0.00619075       0.01720604
B       -1.24994491      -0.64322758       1.63600000       0.07050222       0.11490783      -0.19519842
B        0.34553717      -1.40964309       1.50605685       0.00387427      -0.01660636       0.04331367
B        1.26478518      -1.00376880       3.04257377      -0.00508428      -0.00071601      -0.00990045
C        1.12868669       0.97289016      -1.58791113       0.00133024       0.02784002      -0.02073866
B        1.62298936       0.25040541      -3.01794295      -0.01019354      -0.00055825      -0.00866390
B        0.70518814      -1.25735086      -3.07355032      -0.00421159       0.00452828      -0.00742499
B       -1.02494386      -0.82471782      -3.10583431      -0.00252190      -0.00186291       0.00177243
B        0.15760180       0.17983871      -4.00014595      -0.00470119      -0.00035795      -0.00290351
B        0.49046476       1.59030664      -3.05626418      -0.00990655      -0.00565407      -0.00371479
C       -0.42580954       1.36489635      -1.62011460      -0.02545375      -0.01664418      -0.02154520
B        1.34545955      -0.68570598      -1.51608398       0.00977454      -0.01414305      -0.01742043
B       -0.27500000      -1.43300000      -1.61500000      -0.03624586       0.21198884       0.16757560
B       -1.38018078      -0.01385741      -1.53872963      -0.01546413      -0.00456832      -0.03068966
B       -1.13532594       0.94025835      -3.08184309      -0.00272045      -0.00370958       0.01550731
Co       0.00000000       0.00000000       0.00000000       0.02006526      -0.23387524       0.02696801
H        1.31159099       2.07048568       1.09278934       0.01791089       0.02923556       0.01224786
H       -0.03278256       2.67786207       3.45361327      -0.00205709      -0.00712210       0.00264649
H       -2.28175562       0.56854686       3.68800821       0.00022486      -0.00446949       0.00452892
H       -0.94116507      -2.20179378       3.67630746       0.00540388      -0.01006860      -0.00638127
H        0.30734064       0.10654942       5.19241946       0.00050905      -0.00553508       0.00098827
H        2.60437357       1.21420393       3.34622853      -0.00901696      -0.00086513       0.00337990
H        2.44802637      -0.31204210       1.06262832       0.01907837      -0.00652469       0.01635322
H       -1.53895767       2.01065076       1.11462205       0.00661389       0.00602025      -0.01814378
H       -2.26445477      -1.12715752       1.22916337      -0.02070130       0.00545345       0.00379462
H        0.64324158      -2.48526703       1.07864076      -0.01018745      -0.00430379      -0.01357488
H        2.09947179      -1.76095791       3.43221284      -0.00692646       0.00347586      -0.00667977
H        1.82030571       1.65052048      -1.08016787       0.02348256       0.02743810      -0.01646283
H        2.74084394       0.40879196      -3.40055162      -0.00126985       0.00523344      -0.00387737
H        1.14221773      -2.22015970      -3.62722559       0.00206633      -0.00283852      -0.00671021
H       -1.84379129      -1.47740761      -3.67975046      -0.00612943       0.00012456       0.00446620
H        0.18609540       0.18972238      -5.18975528       0.00025724      -0.00198233      -0.00172155
H        0.77730807       2.69658540      -3.37999779      -0.00741097      -0.00724199      -0.00426643
H       -0.74354198       2.28531892      -1.12109198      -0.01472324       0.00107645      -0.03361032
H        2.34153764      -1.14276384      -1.04039217       0.01926758       0.00707823       0.02153988
H       -0.55999585      -2.50977955      -1.18578010       0.01150718      -0.03317578       0.00543249
H       -2.50511567       0.06017039      -1.13884956       0.00013342      -0.01791488       0.01470451
H       -2.03546463       1.59779273      -3.50551998       0.00194825      -0.01142582       0.00583555
