45
Properties=species:S:1:pos:R:3:forces:R:3 charge=-1 spin=1 energy=-54314.35400106209 free_energy=-54314.35400106209 stress="-0.3294924795627594 0.052098214626312256 -0.010681293904781342 0.052098214626312256 0.03415703400969505 0.07196436077356339 -0.010681293904781342 0.07196436077356339 0.0751618817448616" pbc="F F F"
C        1.09505920       0.96050226       1.51983634      -0.00595527      -0.00771177       0.00382053
B        0.49636060       1.50600662       3.00054790      -0.01151292      -0.00161191       0.01003689
B       -1.08021763       0.71783042       3.14194244      -0.00551610      -0.00585285       0.00240820
B       -0.81283845      -1.03126581       3.12565254      -0.00581551      -0.00012687      -0.01244452
B        0.34280704       0.03671373       3.97585711      -0.00987806      -0.00542137       0.00457984
B        1.73826084       0.25414620       2.90597049      -0.00028312      -0.00149071       0.01528762
C        1.33438499      -0.59666422       1.49841100      -0.01493778      -0.00602632       0.00293564
B       -0.55008819       1.34189243       1.57293657      -0.00534085      -0.00512240       0.00300693
B       -1.38753651      -0.22549156       1.63600000      -0.20219031       0.02304955      -0.07376288
B       -0.11748451      -1.46116178       1.52994016      -0.00200850       0.00448138      -0.00804659
B        0.91901230      -1.30934382       2.97895386       0.00203882      -0.00388370      -0.00287026
C        1.02896555       1.00458308      -1.52280611      -0.01338630      -0.00727554      -0.00560380
B        1.55598218       0.35545714      -2.98855635      -0.00800935      -0.00963588      -0.01199630
B        0.69314846      -1.18326035      -3.11602355      -0.01078894      -0.00551381      -0.00374320
B       -1.04032997      -0.83077462      -3.11694655      -0.00640923      -0.00542378       0.01367157
B        0.09000209       0.26014943      -3.97382468      -0.01437664      -0.00840797      -0.00482009
B        0.36711218       1.65920759      -2.92301943      -0.00844152      -0.00026824      -0.01519741
C       -0.51671731       1.32180183      -1.51518369      -0.00698418      -0.01454263      -0.00310641
B        1.32639630      -0.66112371      -1.55053994      -0.00687479      -0.00058854      -0.00426034
B       -0.27500000      -1.43300000      -1.61500000      -0.00737957       0.05919962       0.07586209
B       -1.44879351      -0.09386052      -1.53363687       0.00181636      -0.00608764       0.00861984
B       -1.23411206       0.91527318      -2.99564144      -0.01044908      -0.00059171       0.00313896
Co       0.00000000       0.00000000       0.00000000       0.39362207       0.01259627       0.00212125
H        1.83215105       1.56686814       1.02042357       0.00329720       0.02252232       0.03092146
H        0.81204935       2.58505207       3.37197407      -0.00135102      -0.00218034       0.00947615
H       -1.96563356       1.23849321       3.73264766      -0.00103997      -0.00843636      -0.00092138
H       -1.49830615      -1.79585113       3.71667399       0.00113492      -0.00129189      -0.01477922
H        0.47924574       0.04754886       5.15354684      -0.00450310      -0.00983899       0.00424797
H        2.88056018       0.42034974       3.15854342       0.00989876      -0.00101626       0.00593665
H        2.20668738      -0.95987020       0.98447701       0.00732759       0.00273066       0.01248085
H       -0.93262089       2.38399996       1.14631135      -0.01527234       0.00605319      -0.00207298
H       -2.52173462      -0.39785826       1.33538219      -0.00541023      -0.00344568      -0.00414373
H       -0.17471319      -2.56512264       1.11040351       0.00801947       0.00944077      -0.01434746
H        1.53740758      -2.24927831       3.34416538       0.00061246      -0.00861592      -0.00382687
H        1.66922134       1.71634308      -1.02885680       0.01744629       0.00258445      -0.03476109
H        2.65371382       0.61101086      -3.35204249      -0.00860753       0.00083732      -0.01232061
H        1.17927830      -2.09891480      -3.68990390      -0.01282305      -0.00108339      -0.00253152
H       -1.83323685      -1.48228118      -3.70906449      -0.00523725      -0.00104006       0.01716035
H        0.11837226       0.37922391      -5.15310289      -0.01871235      -0.00377392      -0.00454816
H        0.59316603       2.78756455      -3.19172953      -0.00884070       0.01024357      -0.00661728
H       -0.83975319       2.22127757      -1.02029942      -0.00033793       0.00298175      -0.00699805
H        2.34718906      -1.08652471      -1.11435932       0.00401095      -0.01618947      -0.00220465
H       -0.50535691      -2.55102315      -1.29719643      -0.00225014      -0.00425262       0.00515872
H       -2.55792648      -0.08923204      -1.12268737       0.00763825       0.00224233       0.01766794
H       -2.13800860       1.57328248      -3.38179386      -0.01593969      -0.00221476       0.00738527
