45
Properties=species:S:1:pos:R:3:forces:R:3 charge=-1 spin=1 energy=-242.3101806640625 free_energy=-242.3101806640625 stress="6.019719833716408e-09 7.785640576685182e-09 -3.0894280911297756e-08 7.785640576685182e-09 3.1975289971342136e-08 3.080055321902364e-08 -3.0894280911297756e-08 3.080055321902364e-08 9.778671206106537e-09" pbc="F F F"
C        1.20082130       0.86509968       1.59542385       0.01932240       0.00805281       0.01726919
B        0.59850407       1.43815210       3.05041688      -0.01636074      -0.00640670       0.01001817
B       -1.04383932       0.78592916       3.11259795       0.00600761      -0.00351258      -0.00391240
B       -0.91112097      -0.99341458       3.10551946      -0.00241578      -0.00087047      -0.00026721
B        0.29226355      -0.01716351       4.00287536      -0.00578184      -0.00053540       0.00078938
B        1.72423744       0.08887753       3.03806730      -0.00183595       0.00216814       0.02855666
C        1.32065090      -0.73236992       1.58810216      -0.01321927      -0.03584883       0.01705346
B       -0.39785748       1.36370964       1.55734192      -0.02055478      -0.01526257       0.01659508
B       -1.39895725      -0.13792247       1.63600000       0.08594072       0.09420823      -0.15746896
B       -0.19768621      -1.43778241       1.50549330       0.01898701       0.00247142      -0.00401726
B        0.80652197      -1.39892161       3.04271645      -0.00498073      -0.00448238       0.00489722
C        1.12874652       0.97241807      -1.58759428      -0.00735164       0.02812102      -0.01010746
B        1.62320728       0.25044504      -3.01780492      -0.00741855      -0.00668371      -0.01342523
B        0.70527242      -1.25748848      -3.07347927      -0.00310422       0.00517663       0.00104529
B       -1.02493107      -0.82472098      -3.10587791      -0.00220621      -0.00140856       0.00191312
B        0.15767547       0.17983045      -4.00013721      -0.00548741      -0.00107975      -0.00215649
B        0.49062541       1.59039019      -3.05620022      -0.00721867       0.00380734      -0.01383943
C       -0.42539801       1.36530746      -1.61964504      -0.02749395      -0.00864226      -0.02306008
B        1.34553894      -0.68554410      -1.51573216      -0.03260922      -0.00603505      -0.02131381
B       -0.27500000      -1.43300000      -1.61500000      -0.01953497       0.18728060       0.12254199
B       -1.38008481      -0.01385489      -1.53837047       0.00042343       0.01543665       0.00733488
B       -1.13531230       0.94028653      -3.08208788      -0.00667376      -0.00154492       0.00326364
Co       0.00000000       0.00000000       0.00000000      -0.00810374      -0.23273072       0.03061911
H        1.98120990       1.44190383       1.09265715       0.02260065       0.02031209       0.01011898
H        0.95535197       2.50192429       3.45357003      -0.00292850      -0.00337821       0.00323084
H       -1.91217003       1.36862669       3.68792511      -0.00168663      -0.00413618       0.00336830
H       -1.68561298      -1.70052999       3.67639021       0.00127990      -0.01182330      -0.00541911
H        0.32499914      -0.01399747       5.19238335      -0.00105642      -0.00551186       0.00424288
H        2.86858524       0.17016615       3.34618846      -0.00907639       0.00155937       0.00280389
H        2.16087948      -1.19114815       1.06238081       0.00886430       0.01070222       0.02059481
H       -0.69078503       2.43586558       1.11491910      -0.01003890       0.01011438      -0.01853930
H       -2.52006819      -0.21457623       1.22921677      -0.00807568       0.00227839      -0.00227378
H       -0.31663977      -2.54745806       1.07889060       0.00054977       0.00991364      -0.00720798
H        1.30386640      -2.41026154       3.43231673      -0.00588402       0.00556047      -0.00673489
H        1.81989648       1.65006907      -1.07995961       0.02232373       0.02105762      -0.01302481
H        2.74080873       0.40870610      -3.40049029       0.00111091       0.00639648      -0.00353956
H        1.14216478      -2.22007273      -3.62711195       0.00186128      -0.00218140      -0.00470952
H       -1.84369249      -1.47740109      -3.67980809      -0.00563458       0.00046252       0.00423911
H        0.18608602       0.18975147      -5.18972039       0.00038126      -0.00193023      -0.00362720
H        0.77741241       2.69670344      -3.37994367      -0.00844664      -0.00882268      -0.00298734
H       -0.74337480       2.28523545      -1.12070327       0.00902303      -0.01197305      -0.01188622
H        2.34108298      -1.14271998      -1.04061944       0.03295838      -0.01518224      -0.00274601
H       -0.56011248      -2.50919361      -1.18596783      -0.00194745      -0.02395752      -0.00410497
H       -2.50509467       0.06042390      -1.13914379       0.01335106      -0.00861384       0.02065924
H       -2.03551408       1.59797214      -3.50561098       0.00214051      -0.01252566       0.00521399
