45
Properties=species:S:1:pos:R:3:forces:R:3 charge=-1 spin=1 energy=-54314.63824178475 free_energy=-54314.63824178475 stress="0.01401523407548666 -0.062086254358291626 -0.04920163378119469 -0.062086254358291626 -0.12966711819171906 -0.14262188971042633 -0.04920163378119469 -0.14262188971042633 0.8661680221557617" pbc="F F F"
C        0.36905384      -1.41566087       1.45890012      -0.01174469      -0.00343776       0.00612352
B        1.12734866      -1.14394014       2.95236422       0.00111967      -0.00094084      -0.00966607
B        1.15812045       0.61614596       3.12576753       0.00157357       0.00020986       0.00003386
B       -0.51657347       1.18988309       3.12300758       0.00105506       0.00038236      -0.00874849
B       -0.10285340      -0.34223058       3.94397629      -0.00436330       0.00882173      -0.00322467
B       -0.55478288      -1.66798921       2.85147279      -0.00756321       0.00095258      -0.00690490
C       -1.13949202      -0.90765426       1.46204075      -0.01336823       0.01516425      -0.00528681
B        1.46734678      -0.12638066       1.53710322      -0.01826783      -0.01370219      -0.00237595
B        0.47085105       1.32453890       1.63600000      -0.11221353       0.19715671      -0.02669310
B       -1.22461363       0.78548773       1.54126772      -0.00589307       0.01021154      -0.01020389
B       -1.56923945      -0.22121589       2.95775176      -0.00258858       0.00330119      -0.01901513
C        1.08050227       0.96803513      -1.45473084      -0.00631085       0.00770612      -0.00670993
B        1.60876303       0.30364317      -2.92477898       0.00152370       0.00011214       0.01030165
B        0.71325212      -1.21413308      -3.08631357       0.00202522       0.00013456       0.00144527
B       -1.01287207      -0.82205332      -3.12486699      -0.00054745      -0.00000736       0.00883630
B        0.16074807       0.24750888      -3.94428939      -0.00722312      -0.00514151       0.00404231
B        0.45197825       1.63577587      -2.87519877      -0.00566095       0.00335639       0.00642072
C       -0.47179630       1.32846697      -1.49602092      -0.01782061      -0.00555984       0.00709018
B        1.33412666      -0.71182521      -1.49480964      -0.00874578       0.02193675       0.00215366
B       -0.27500000      -1.43300000      -1.61500000      -0.13422075       0.11173498       0.04228788
B       -1.42988759      -0.07375705      -1.56412537      -0.00955523      -0.00605282       0.01023748
B       -1.16887784       0.93456756      -2.99711341      -0.00381691      -0.00117392       0.01870411
Co       0.00000000       0.00000000       0.00000000       0.36341757      -0.35230094      -0.02428890
H        0.56992229      -2.32969084       0.92548907       0.00589209       0.00820721      -0.00648542
H        1.93613386      -1.92284608       3.32578821       0.00021830      -0.00089920      -0.01012478
H        2.03229672       1.14820780       3.72267993       0.00207041       0.00405695       0.00064365
H       -0.87718964       2.14456812       3.72678206       0.00096662      -0.00199433      -0.01066316
H       -0.15069126      -0.48494718       5.12023564      -0.00503483      -0.00622795      -0.00220901
H       -0.92900777      -2.75843239       3.10975744      -0.00250448      -0.00537965      -0.01770251
H       -1.86250797      -1.50645171       0.93257027       0.00307378       0.00115075      -0.00158269
H        2.56563311      -0.23671676       1.10630328      -0.00094788       0.00514912       0.00334058
H        0.83406125       2.40853827       1.29421131       0.00144444       0.00480134       0.00639432
H       -2.15867252       1.35773046       1.08488423       0.00097705       0.00699421      -0.00011528
H       -2.68339297      -0.34318749       3.33910298       0.00096526       0.00214484      -0.02019594
H        1.72344346       1.65237418      -0.92647143      -0.00014784      -0.01031314       0.00765909
H        2.71329859       0.53266847      -3.28241130      -0.00056170       0.00094691       0.01040629
H        1.19199741      -2.13586250      -3.65656503      -0.00147129      -0.00317847      -0.00003123
H       -1.81097184      -1.45412135      -3.73280021      -0.00019574       0.00187648       0.01071404
H        0.21829923       0.37044416      -5.12237494      -0.00193951       0.00881698       0.00329178
H        0.71192177       2.75384208      -3.15474618       0.00076308       0.00718277       0.01777181
H       -0.78411115       2.23021314      -0.99501207       0.00225077      -0.00143383       0.00488284
H        2.31792807      -1.18558638      -1.03453510      -0.00361742      -0.00338344      -0.00364446
H       -0.54307118      -2.53573284      -1.24869142      -0.00109055      -0.00595933      -0.00777795
H       -2.53350890      -0.06055187      -1.12805893      -0.00141338      -0.00453698      -0.00079781
H       -2.04507368       1.61486095      -3.41074872      -0.00050765      -0.00088528       0.02166679
