45
Properties=species:S:1:pos:R:3:forces:R:3 charge=-1 spin=1 energy=-54314.44905568856 free_energy=-54314.44905568856 stress="-0.12165972590446472 0.1945938616991043 0.26836177706718445 0.1945938616991043 -0.19151020050048828 0.2722295820713043 0.26836177706718445 0.2722295820713043 0.5197529792785645" pbc="F F F"
C       -1.40255774      -0.37213918       1.49985120       0.00037686       0.01898650       0.00333432
B       -1.09263134      -1.12493688       2.97525578       0.00869423      -0.00334068       0.01315673
B        0.66636161      -1.10427622       3.12575365       0.00154421      -0.00470024      -0.00723823
B        1.18979456       0.58759445       3.12757740      -0.00667301      -0.01245043       0.01466731
B       -0.31587587       0.12319836       3.96880909      -0.01071422       0.02494957      -0.00311344
B       -1.66747807       0.54365042       2.89878433      -0.00556693      -0.02372922       0.01275336
C       -0.93688754       1.13938567       1.50572675      -0.00886700      -0.03068022      -0.03255427
B       -0.07868186      -1.43493607       1.53426098       0.02062968      -0.00762788       0.00829578
B        1.35149020      -0.38675345       1.63600000       0.13912606      -0.11262505      -0.19675666
B        0.74362662       1.27440402       1.55005124       0.00878005       0.01095367      -0.02505156
B       -0.24796849       1.59704263       2.98442627      -0.00934179      -0.01080086       0.04012122
C        0.99107489       1.01980896      -1.52991535      -0.01679610       0.01139587      -0.00653510
B        1.52444556       0.35436975      -2.98452686      -0.00151488      -0.00113073      -0.00718232
B        0.69071089      -1.19691527      -3.10044138       0.00397147      -0.00343710       0.00936183
B       -1.05127108      -0.87541514      -3.12474187       0.01934422      -0.00161068      -0.01708261
B        0.06568581       0.21939374      -3.98710028      -0.01328872       0.02177579       0.00434681
B        0.31268335       1.64052942      -2.95389813       0.03142016      -0.00663972      -0.00591945
C       -0.56347017       1.30840009      -1.55734910       0.03155280      -0.00450133       0.03261165
B        1.31501606      -0.64646510      -1.51575610      -0.00297257      -0.02581941      -0.00333983
B       -0.27500000      -1.43300000      -1.61500000       0.05851926      -0.07911441       0.26190406
B       -1.46088735      -0.11880485      -1.56984732      -0.01422823      -0.00140334       0.02771152
B       -1.27835071       0.86945028      -3.02993128       0.01804126       0.00572731      -0.04166988
Co       0.00000000       0.00000000       0.00000000      -0.28718272       0.27438727      -0.09498341
H       -2.32097339      -0.59575746       0.98681953      -0.00327493      -0.02577006      -0.01272869
H       -1.84093585      -1.96204947       3.34853284       0.00853035       0.00020778       0.00178379
H        1.23739478      -1.96100621       3.71075116      -0.00021967       0.00371485       0.00608663
H        2.14581282       0.97152574       3.71287604      -0.00356186       0.00422268       0.00444080
H       -0.44302712       0.16540306       5.14752104      -0.00161990      -0.00787218      -0.01108430
H       -2.76710385       0.89223846       3.15885074       0.00124332      -0.01211709       0.00433289
H       -1.57117351       1.85528110       1.00847686      -0.02461379      -0.02001812      -0.03596197
H       -0.18578132      -2.53663406       1.11675028       0.02440728      -0.01985062       0.01911490
H        2.44619018      -0.72378350       1.32832943       0.01072472       0.01667180       0.00094819
H        1.28446071       2.23405665       1.10038337      -0.04158797       0.00374356      -0.00416421
H       -0.39378280       2.71328643       3.35131872      -0.00808080       0.00464151       0.01376579
H        1.61237883       1.74489955      -1.03449150       0.02250135      -0.00720362       0.01857542
H        2.61559769       0.61803820      -3.35836114      -0.00132487      -0.00744919       0.00161378
H        1.18947531      -2.11527793      -3.65742808      -0.00098758       0.00271821      -0.00429454
H       -1.83232254      -1.55869665      -3.69673303       0.00052068       0.00606191      -0.00553286
H        0.09554898       0.31921545      -5.16888463       0.01227642       0.00003547       0.01289840
H        0.51624162       2.76855649      -3.24485641       0.01157875      -0.00873909      -0.00077209
H       -0.90786007       2.21646391      -1.08949530       0.02737659       0.01344710       0.03762538
H        2.33803856      -1.05135391      -1.08056025       0.00674612      -0.03176079      -0.01247951
H       -0.48654205      -2.54914383      -1.27606946      -0.02146640      -0.00464151      -0.00299319
H       -2.56583210      -0.13976949      -1.12932842       0.01481109       0.04074771      -0.00295080
H       -2.19726522       1.50601305      -3.42003349       0.00116721       0.01064525      -0.01506156
