45
Properties=species:S:1:pos:R:3:forces:R:3 charge=-1 spin=1 energy=-54314.44831372994 free_energy=-54314.44831372994 stress="-0.09252652525901794 0.24281193315982819 0.4375830888748169 0.24281193315982819 -0.6258254051208496 0.24436810612678528 0.4375830888748169 0.24436810612678528 0.5039700269699097" pbc="F F F"
C       -1.40733945       0.35557727       1.49783285       0.00386949       0.00491208      -0.00068461
B       -1.49829246      -0.45996108       2.96991296      -0.00716571       0.00211793       0.02040323
B        0.05229560      -1.28860640       3.12017468      -0.00788362      -0.00634536      -0.00607689
B        1.32769377      -0.05701519       3.12058333      -0.01066600      -0.01643516       0.02215598
B       -0.21536323       0.26137572       3.96083882      -0.00203096       0.01390416       0.01068564
B       -1.19869201       1.28038352       2.89426874      -0.01293521      -0.00556300       0.02918088
C       -0.26783162       1.44906574       1.49919893      -0.00401137      -0.02023774      -0.01549697
B       -0.76211356      -1.21858005       1.52904221       0.00893136      -0.00772631       0.00610764
B        0.99800000      -0.99000000       1.63600000       0.07556991      -0.23578578      -0.36975810
B        1.27174763       0.75439966       1.53906558       0.00633440      -0.00834409      -0.01037372
B        0.55409927       1.51943190       2.97643684      -0.00280434      -0.00990968       0.04107404
C        0.98608750       1.02406576      -1.53101763      -0.00620592       0.00430423      -0.00186633
B        1.52295935       0.35365093      -2.98085214       0.00370067       0.00884006      -0.01845398
B        0.68965207      -1.19703342      -3.09548337       0.00909894      -0.00168659       0.00646584
B       -1.05455012      -0.87540561      -3.11716683       0.01979702      -0.01007289      -0.02319692
B        0.06213557       0.21922312      -3.97981477      -0.00534491       0.01215880      -0.01006376
B        0.31110876       1.64088913      -2.95095548       0.01754577       0.00058876      -0.02550998
C       -0.56688905       1.30567143      -1.55177374       0.01342784      -0.01481154       0.01631093
B        1.31550763      -0.64412850      -1.51204481      -0.00391180      -0.01402014      -0.00414274
B       -0.27500000      -1.43300000      -1.61500000       0.08169935      -0.14309566       0.44892853
B       -1.46410414      -0.12537682      -1.55658104      -0.00024332      -0.00957874       0.01209638
B       -1.28127762       0.86887624      -3.02165848       0.00922555      -0.00731490      -0.04098863
Co       0.00000000       0.00000000       0.00000000      -0.14836454       0.34900934      -0.08668767
H       -2.32129017       0.59213987       0.97965628      -0.00566944       0.01516922      -0.00017876
H       -2.55542970      -0.83555383       3.34512991      -0.01097321       0.01205072       0.00572677
H        0.14468442      -2.31281629       3.70733732      -0.01249211       0.00451704       0.00270257
H        2.34923544      -0.17919787       3.70783841      -0.00267504      -0.00246453       0.00366189
H       -0.30566349       0.35766416       5.13927544      -0.00552086       0.00398314       0.00049557
H       -1.99611928       2.11263814       3.15849670       0.00364987       0.01200849      -0.00500436
H       -0.47316879       2.38116891       0.99729354      -0.00336882       0.02042730       0.02357201
H       -1.38278455      -2.13027663       1.09699476      -0.01126031      -0.00477223       0.01625619
H        1.79210787      -1.81017567       1.31456672       0.00565145      -0.01156369       0.00776876
H        2.20543699       1.33007055       1.08185147      -0.01042359       0.00334658       0.02165864
H        0.96125425       2.56750580       3.34805529       0.00319943       0.00353330      -0.00285960
H        1.61376520       1.74149961      -1.02985513      -0.00158560       0.01443916       0.00020142
H        2.61434621       0.61414054      -3.35561633       0.00271337       0.01468543      -0.00538111
H        1.18419871      -2.11657946      -3.65425870       0.00708948       0.01045907      -0.00285049
H       -1.83557546      -1.55620845      -3.69149760       0.00447656      -0.00134401      -0.00417859
H        0.09244139       0.31686964      -5.16127831       0.00305768       0.00631630       0.00039826
H        0.51785627       2.76744204      -3.24538313      -0.00952582       0.00611406       0.00613223
H       -0.91443806       2.21033193      -1.07873014      -0.01021559       0.01691279      -0.02371323
H        2.33443420      -1.04784966      -1.06270664       0.01258334      -0.00092631      -0.01446233
H       -0.48578166      -2.54492426      -1.26107938       0.00177825      -0.01373429      -0.00797479
H       -2.56375975      -0.14766885      -1.10639371       0.00642102       0.00518987      -0.02481468
H       -2.19742894       1.50674895      -3.41682957      -0.00454253       0.00074471       0.00273491
