45
Properties=species:S:1:pos:R:3:forces:R:3 charge=-1 spin=1 energy=-242.2647705078125 free_energy=-242.2647705078125 stress="-5.288467974651212e-08 2.1511057823886404e-08 -1.0603068645309577e-08 2.1511057823886404e-08 -9.796116984261971e-08 1.1124306809051632e-07 -1.0603068645309577e-08 1.1124306809051632e-07 -1.246942957777719e-07" pbc="F F F"
C        0.37047252      -1.38767724       1.55400000       0.09185074      -0.19172597       0.22843318
B        1.11033665      -1.04120469       3.03881384      -0.00035542      -0.00026662      -0.00220483
B        1.09210949       0.72851465       3.09834398       0.00060025      -0.00164811      -0.00339872
B       -0.61528041       1.24380525       3.07060934       0.00152896       0.00116128       0.00201503
B       -0.13924665      -0.23272807       3.97976514       0.00269493      -0.00013171      -0.00014624
B       -0.54515635      -1.60984836       3.02211957       0.00118110      -0.00019463      -0.00071280
C       -1.15988747      -0.94101597       1.56400000      -0.09558636       0.00356573      -0.01666769
B        1.42694798      -0.08026490       1.55320127      -0.00200900       0.00706360       0.00589103
B        0.37762271       1.37371898       1.60590576       0.00078501      -0.00070775      -0.00076136
B       -1.29613069       0.73324528       1.51210235      -0.00601289      -0.00165517      -0.00485221
B       -1.60929632      -0.21850198       3.01509493       0.00054535      -0.00209374      -0.00020065
C        1.14300000       0.92400000      -1.55300000       0.12439039       0.03209466      -0.09822552
B        1.62055404       0.19911878      -2.99958920      -0.00054338       0.00184439       0.00227893
B        0.67360004      -1.29463051      -3.04059884       0.00070509       0.00125836       0.00329727
B       -1.05043652      -0.83732110      -3.07835813       0.00115186      -0.00195114      -0.00148703
B        0.15448275       0.15219397      -3.96985103       0.00177855      -0.00043648       0.00028091
B        0.51312205       1.55371450      -3.02953971       0.00121843      -0.00098408       0.00090887
C       -0.40000000       1.32300000      -1.56800000      -0.15355572       0.25388619      -0.21643935
B        1.33600410      -0.74021077      -1.48639822      -0.00475839      -0.00322802      -0.00535353
B       -0.31724613      -1.43434255      -1.57700769       0.00167669       0.00133428      -0.00062209
B       -1.41843403      -0.02081817      -1.55243010      -0.00406593       0.00497772       0.00485384
B       -1.12517880       0.93040523      -3.04686116       0.00153084       0.00116730      -0.00040512
Co       0.00000000       0.00000000       0.00000000       0.04201274      -0.10473500       0.09976040
H        0.63605756      -2.31992710       1.04633456       0.00072854       0.00003341       0.00235584
H        1.97315784      -1.75813928       3.44242822      -0.00004709       0.00051244      -0.00088751
H        1.93593676       1.33715202       3.68384919      -0.00014275      -0.00096441      -0.00262051
H       -0.99874645       2.22332311       3.63459069      -0.00007823       0.00344606       0.00070349
H       -0.15935478      -0.25321998       5.16991877       0.00073081       0.00088118       0.00069834
H       -0.87485529      -2.70975357       3.32463030       0.00022966       0.00103080       0.00038564
H       -1.88435437      -1.56765406       1.03518157       0.00136450       0.00202979       0.00211622
H        2.53994850      -0.20533419       1.13751129      -0.00018090       0.00055442      -0.00812311
H        0.70912186       2.44847080       1.19361684      -0.00164450       0.00171065      -0.00094356
H       -2.26771269       1.23518025       1.03047366       0.00028427      -0.00056177       0.00792228
H       -2.73270436      -0.32507284       3.39983903      -0.00002965       0.00072779       0.00075752
H        1.84557910       1.58469115      -1.03602678      -0.00311096      -0.00115036      -0.00064570
H        2.74093683       0.33787115      -3.38230831      -0.00128654      -0.00014395       0.00008829
H        1.08871953      -2.26971439      -3.58992329      -0.00005480       0.00112273       0.00190511
H       -1.87097661      -1.48134391      -3.65841813      -0.00163443      -0.00277951      -0.00059428
H        0.17783810       0.15667377      -5.16008534      -0.00032254      -0.00041410      -0.00030088
H        0.80942198       2.65921623      -3.34563214      -0.00103186      -0.00127238       0.00008729
H       -0.70201110       2.25577124      -1.08043759       0.00057041      -0.00201380      -0.00194860
H        2.32841612      -1.20882947      -1.01658345       0.00009075      -0.00014462       0.00731012
H       -0.60303208      -2.51102077      -1.13764092      -0.00139136      -0.00032752       0.00344183
H       -2.52473106       0.07064891      -1.10877894       0.00078072      -0.00035635      -0.00755551
H       -2.00841280       1.61414563      -3.46350488      -0.00058763      -0.00051588      -0.00039487
