45
Properties=species:S:1:pos:R:3:forces:R:3 charge=-1 spin=1 energy=-242.30722045898438 free_energy=-242.30722045898438 stress="-6.620496151299449e-08 2.5222202992836174e-08 -3.4809552573733527e-08 2.5222202992836174e-08 -8.06382658424809e-08 1.0340342271319969e-07 -3.4809552573733527e-08 1.0340342271319969e-07 -1.5549348120202922e-07" pbc="F F F"
C        1.04953542      -0.98049651       1.55400000       0.18986483      -0.05624971       0.26001969
B        1.49879919      -0.28345712       3.03029236      -0.00027670       0.00150114      -0.00000469
B        0.54301403       1.20645287       3.09100296       0.00162190       0.00022303      -0.00137845
B       -1.17486063       0.73109183       3.07396402      -0.00101186       0.00172981      -0.00027379
B        0.01470193      -0.26171099       3.97978702       0.00083961       0.00119995       0.00017293
B        0.39728920      -1.64718740       3.02437214      -0.00055147      -0.00041715      -0.00135303
C       -0.48497787      -1.41267352       1.56400000      -0.06108411      -0.07244450       0.01272449
B        1.24796557       0.69647006       1.55243182      -0.00011328       0.00023882       0.00019702
B       -0.41163065       1.36632458       1.60096458       0.00151481      -0.00011203      -0.00181381
B       -1.48096200      -0.06963155       1.50428650       0.00119808      -0.00335753      -0.00233978
B       -1.23941836      -1.03553444       3.02442694      -0.00017448      -0.00133984      -0.00226947
C        1.14300000       0.92400000      -1.55300000       0.12036368      -0.01735583      -0.11560379
B        1.62545199       0.19342915      -2.99435158      -0.00051277       0.00100735       0.00123289
B        0.67555197      -1.29936020      -3.04066427       0.00265032       0.00143456      -0.00027306
B       -1.04504225      -0.83470828      -3.08697711      -0.00150611      -0.00014638      -0.00171341
B        0.16334286       0.14984222      -3.97266042       0.00185823       0.00206455      -0.00176607
B        0.51994913       1.55147599      -3.03162096       0.00057440       0.00071183       0.00177418
C       -0.40000000       1.32300000      -1.56800000      -0.13501242       0.29020232      -0.22098166
B        1.33050075      -0.74752739      -1.49393941       0.00019947       0.00137370      -0.00216766
B       -0.32121458      -1.43472848      -1.58129060       0.00183401       0.00081566      -0.00003603
B       -1.41188071      -0.01466967      -1.54876401       0.00194618       0.00545962       0.00242577
B       -1.11558781       0.93199632      -3.05688819       0.00032878       0.00379626       0.00288311
Co       0.00000000       0.00000000       0.00000000      -0.11195908      -0.17058417       0.08306625
H        1.77181585      -1.63197400       1.05491211      -0.00444766       0.00273969       0.00263296
H        2.61197726      -0.43243282       3.42974251      -0.00077412       0.00076275       0.00099890
H        0.93645331       2.17213328       3.67146984      -0.00111752       0.00058429      -0.00076043
H       -2.02171836       1.35750410       3.63521379      -0.00265852       0.00171183      -0.00064534
H        0.01683178      -0.28667957       5.16994347      -0.00072120       0.00162264       0.00070985
H        0.70310695      -2.75276902       3.33077724      -0.00036221       0.00019929       0.00181586
H       -0.76668793      -2.32901951       1.03889081      -0.00110685       0.00266582       0.00279198
H        2.24510489       1.18441468       1.10701634       0.00330638      -0.00185365       0.00505546
H       -0.72052043       2.44395218       1.17962655       0.00214182      -0.00007106      -0.00171819
H       -2.58982786      -0.16913528       1.07394477       0.00058880       0.00050439      -0.00382673
H       -2.13440761      -1.72012352       3.41358058      -0.00077330       0.00054328       0.00020735
H        1.84645940       1.58226109      -1.03605959      -0.00194171      -0.00235499      -0.00289826
H        2.74736858       0.33072293      -3.37247522      -0.00217995       0.00081181      -0.00154391
H        1.09090227      -2.27599473      -3.58590942      -0.00143434       0.00132874      -0.00317181
H       -1.86815096      -1.47723443      -3.66484840      -0.00352833       0.00005283      -0.00237686
H        0.19430282       0.15222254      -5.16256822      -0.00081848       0.00204203      -0.00276458
H        0.81856714       2.65592431      -3.34878962      -0.00074065       0.00018382       0.00011472
H       -0.70159562       2.25446951      -1.07901759      -0.00090589      -0.00109278       0.00038278
H        2.31416095      -1.21993987      -1.00679125       0.00269775       0.00073275      -0.00746189
H       -0.63075339      -2.50775395      -1.15122892       0.00203447      -0.00045232      -0.00314745
H       -2.53546150       0.08691466      -1.15729175       0.00081607      -0.00145072       0.00291805
H       -1.99760900       1.61563131      -3.47591340      -0.00066690       0.00103849       0.00016566
