45
Properties=species:S:1:pos:R:3:forces:R:3 charge=-1 spin=1 energy=-242.23300170898438 free_energy=-242.23300170898438 stress="-5.021230009560895e-08 4.4072560712038467e-08 1.2697380924464596e-09 4.4072560712038467e-08 -7.889003228456204e-08 1.2194544929400308e-08 1.2697380924464596e-09 1.2194544929400308e-08 -2.4147385602191207e-07" pbc="F F F"
C       -0.17373977       1.42573227       1.55400000      -0.12163247       0.17674954       0.26127234
B       -0.97694781       1.16299574       3.02176477      -0.00007986       0.00607064      -0.00293846
B       -1.20409477      -0.58738850       3.06576808      -0.00645471       0.00054584       0.00019854
B        0.41361000      -1.33157787       3.05354805       0.00205498      -0.00249690       0.00414827
B        0.13647934       0.18103455       3.96778526       0.00231259       0.00564624       0.00472696
B        0.74123119       1.49718947       3.02371255       0.00283716       0.00159514      -0.00142580
C        1.27956364       0.77043293       1.56400000       0.06448834      -0.06604269       0.16009107
B       -1.40628000       0.27779491       1.52887401      -0.00503868       0.00506544       0.00453362
B       -0.56414654      -1.30348886       1.55167653      -0.00292535      -0.00477773       0.00004649
B        1.18341234      -0.90592389       1.50698068       0.00685856      -0.00041171      -0.00477912
B        1.60204003      -0.02519698       3.01634236       0.00085403       0.00754781      -0.00183200
C        1.14300000       0.92400000      -1.55300000       0.11175459      -0.04224983      -0.22526382
B        1.60755852       0.17733086      -2.99545192       0.00261870      -0.00323132      -0.00533255
B        0.65935848      -1.31343393      -3.02048117      -0.00185789      -0.00112252      -0.00232744
B       -1.06221931      -0.85538820      -3.05298755       0.00294794      -0.00203459      -0.00419906
B        0.13575881       0.11865843      -3.95945619      -0.00087830      -0.00316062      -0.00204895
B        0.50070845       1.53000467      -3.03086211       0.00132890       0.00341733      -0.00362316
C       -0.40000000       1.32300000      -1.56800000      -0.17264834       0.24491020      -0.25317916
B        1.34036904      -0.74117074      -1.48356192       0.00618967      -0.00644650      -0.00350656
B       -0.31825700      -1.42755559      -1.52283642      -0.00098789      -0.00684741      -0.00452431
B       -1.42074588      -0.01737577      -1.52885072      -0.00531322      -0.00526887       0.00488465
B       -1.13588024       0.90878932      -3.03616337      -0.00199975      -0.00486016      -0.00794875
Co       0.00000000       0.00000000       0.00000000       0.13729791      -0.32321489       0.06395421
H       -0.30843101       2.40074201       1.07580822      -0.00108761       0.00247450      -0.00114571
H       -1.73059934       1.99113236       3.42955636       0.00103068      -0.00191173      -0.00060420
H       -2.13086200      -1.08439255       3.63014289      -0.00105810       0.00110520       0.00022852
H        0.64690024      -2.36448807       3.60382623      -0.00176104      -0.00146997       0.00313013
H        0.14710799       0.19228297       5.15725560      -0.00045023       0.00135764       0.00255579
H        1.21657200       2.53622313       3.34575639      -0.00246832      -0.00331083      -0.00114325
H        2.09967142       1.30043912       1.07198318      -0.00213315      -0.00212377       0.00265194
H       -2.48511943       0.55489628       1.09748563      -0.00111700       0.00202951       0.00481389
H       -1.03016568      -2.33237103       1.15884090      -0.00120271       0.00356265       0.00046728
H        2.09343107      -1.55176622       1.08589522      -0.00169601       0.00069012       0.00936211
H        2.72270776      -0.07524418       3.41790489      -0.00380251       0.00056147       0.00176996
H        1.85907241       1.59611152      -1.07176469      -0.00483382      -0.00379488      -0.00328216
H        2.72183037       0.31672138      -3.39354281      -0.00292605       0.00073111       0.00018878
H        1.06577273      -2.29901466      -3.55734674      -0.00210323       0.00582221       0.00259711
H       -1.88688214      -1.51144800      -3.61365264       0.00312808       0.00162887       0.00206631
H        0.15492624       0.11458259      -5.14912623      -0.00160870       0.00105169       0.00308740
H        0.79498771       2.63016494      -3.36513145      -0.00032724       0.00193837      -0.00018147
H       -0.70223901       2.26839910      -1.10704168      -0.00098391       0.00452850       0.00261581
H        2.34606082      -1.21165143      -1.04898987       0.00247944       0.00043290      -0.00594935
H       -0.61247740      -2.51023240      -1.10985233       0.00448238       0.00395995       0.00048015
H       -2.53249027       0.07790265      -1.10281796      -0.00162093      -0.00091806      -0.00460686
H       -2.01773228       1.58900629      -3.45951650      -0.00166716       0.00227240      -0.00002906
