45
Properties=species:S:1:pos:R:3:forces:R:3 charge=-1 spin=1 energy=-242.3121337890625 free_energy=-242.3121337890625 stress="-6.645256434012481e-08 2.417727884562737e-08 -4.0136946211077884e-08 2.417727884562737e-08 -8.43282492724029e-08 1.0328849953111785e-07 -4.0136946211077884e-08 1.0328849953111785e-07 -1.590653369021311e-07" pbc="F F F"
C        1.17578015      -0.82488729       1.55400000       0.18876350      -0.03732440       0.29014447
B        1.52157447      -0.07151030       3.03192769      -0.00080398      -0.00054939      -0.00169430
B        0.36879319       1.27120439       3.09021525       0.00247517       0.00013417      -0.00125761
B       -1.26669115       0.56236935       3.06986037      -0.00169517       0.00224036      -0.00168671
B        0.04736036      -0.25507433       3.97903403       0.00025073       0.00201068       0.00012865
B        0.61971698      -1.57461103       3.02550970      -0.00072111      -0.00074793      -0.00242541
C       -0.28365195      -1.46642135       1.56400000      -0.05100770      -0.07130772       0.01437506
B        1.14228956       0.86170221       1.55298251       0.00171381      -0.00185436       0.00025350
B       -0.59347723       1.29765570       1.59815311       0.00189628       0.00072834      -0.00190036
B       -1.45502984      -0.27349549       1.49893386       0.00164953      -0.00283933      -0.00111382
B       -1.08564494      -1.19592826       3.02265413      -0.00062941      -0.00189991      -0.00449952
C        1.14300000       0.92400000      -1.55300000       0.11013611      -0.00761017      -0.14761715
B        1.62350171       0.19634569      -2.99798567      -0.00128511       0.00258334       0.00293097
B        0.67418242      -1.29619795      -3.04612373       0.00386452       0.00194946      -0.00002930
B       -1.04655893      -0.83226292      -3.08772313      -0.00197983      -0.00129209      -0.00007880
B        0.15997974       0.15398370      -3.97443300       0.00210386       0.00071177      -0.00150988
B        0.51736698       1.55373996      -3.03133815       0.00077589       0.00061266       0.00362848
C       -0.40000000       1.32300000      -1.56800000      -0.14057013       0.29660001      -0.21698637
B        1.33266738      -0.74574193      -1.49936942       0.00212109       0.00350529      -0.00111903
B       -0.31673488      -1.43511759      -1.58433413       0.00196476       0.00088662       0.00139114
B       -1.40953444      -0.01574677      -1.54542917       0.00181150       0.00561522       0.00147517
B       -1.11775791       0.93359487      -3.05583165      -0.00047772       0.00437218       0.00588387
Co       0.00000000       0.00000000       0.00000000      -0.09382091      -0.20074768       0.07164347
H        1.98232756      -1.37414899       1.06206606      -0.00114030       0.00057882      -0.00225709
H        2.64404953      -0.06472453       3.43309321      -0.00242555      -0.00067990       0.00191714
H        0.62265065       2.28276464       3.67020476      -0.00036713       0.00047307       0.00032536
H       -2.19407979       1.06459078       3.62872509      -0.00321127       0.00302760      -0.00169998
H        0.05222899      -0.27835295       5.16916032      -0.00340724       0.00091607       0.00130944
H        1.07655281      -2.62630408       3.33367574      -0.00209920      -0.00042677       0.00186537
H       -0.43624991      -2.41258059       1.03871212      -0.00301357      -0.00198253       0.00065932
H        2.06981525       1.48151870       1.12093333       0.00115138      -0.00164864       0.00071864
H       -1.04330379       2.32281903       1.17301520       0.00358549       0.00155356      -0.00186425
H       -2.53571593      -0.52340423       1.05678862       0.00029095       0.00208266      -0.00151608
H       -1.87714375      -1.99800240       3.41159549      -0.00296701       0.00127017      -0.00150993
H        1.84635693       1.58577748      -1.04123606       0.00156870      -0.00060456      -0.00004707
H        2.74476941       0.33514660      -3.37756821      -0.00411281       0.00166133      -0.00198415
H        1.08809580      -2.27196069      -3.59384549      -0.00068024       0.00111623      -0.00367273
H       -1.87153943      -1.47299595      -3.66490267      -0.00393076      -0.00224581      -0.00114493
H        0.19052041       0.15838487      -5.16429516      -0.00318513       0.00212022      -0.00338164
H        0.81640510       2.65847766      -3.34727208      -0.00276306       0.00016549       0.00041418
H       -0.70338916       2.25307172      -1.07742165      -0.00123752       0.00040239       0.00136189
H        2.32466190      -1.21731538      -1.02829846       0.00005883       0.00042538      -0.00187220
H       -0.62201116      -2.50952256      -1.15515205       0.00355115      -0.00076255      -0.00011970
H       -2.52962734       0.08200848      -1.14168005       0.00066414      -0.00268568       0.00086791
H       -2.00013148       1.61811972      -3.47268222      -0.00286552      -0.00053412       0.00169413
