45
Properties=species:S:1:pos:R:3:forces:R:3 charge=-1 spin=1 energy=-54314.44255353707 free_energy=-54314.44255353707 stress="1.6769123077392578 0.15639640390872955 0.3995710015296936 0.15639640390872955 0.32287535071372986 -0.10568214952945709 0.3995710015296936 -0.10568214952945709 1.0337262153625488" pbc="F F F"
C        0.28517352       1.40768394       1.55400000       0.24007480      -0.02510622      -0.10193995
B       -0.56372965       1.43281402       3.01261767       0.02368410      -0.00299212       0.00236611
B       -1.34827007      -0.15084413       3.08012558       0.00119716      -0.00777408      -0.01204530
B       -0.07129461      -1.37958021       3.05922454      -0.02512819       0.00627042      -0.00443156
B        0.17224294       0.13759700       3.96951444       0.01671917       0.03270092      -0.00623115
B        1.19033403       1.19802446       2.97080754      -0.00875500       0.00107046      -0.01734370
C        1.45733365       0.32715230       1.56400000      -0.67327112      -0.14299345      -0.28832346
B       -1.26249316       0.72063183       1.53737853      -0.00855782       0.00834372      -0.00116982
B       -0.98723279      -1.04232212       1.55405263      -0.01439888      -0.00458034      -0.00543885
B        0.79053802      -1.24489194       1.50112788       0.01785076      -0.01711501       0.01450770
B        1.48441735      -0.54814389       2.99997268      -0.01725564      -0.00272675      -0.00113486
C        1.14300000       0.92400000      -1.55300000      -0.46893343      -0.04223587       0.10923051
B        1.61309552       0.17543255      -2.98676738      -0.01065531       0.01362302       0.00191503
B        0.66819553      -1.31894983      -3.02965899      -0.01216851      -0.00278880       0.00782091
B       -1.04796017      -0.87663706      -3.05196659       0.01683842      -0.01963996       0.00890142
B        0.13449922       0.10809936      -3.95929027       0.01907602       0.02887628       0.00548268
B        0.49650442       1.54610246      -2.98152386       0.00009268      -0.00537549       0.02139328
C       -0.40000000       1.32300000      -1.56800000       0.05848246      -0.05062462       0.18293995
B        1.33969793      -0.75236925      -1.48757989       0.00958880       0.00306512      -0.00358892
B       -0.30693140      -1.44615029      -1.51851200      -0.00318304      -0.01216095       0.00421093
B       -1.41722881      -0.04519498      -1.51796071      -0.02713591       0.00240795      -0.00978346
B       -1.14583740       0.88518731      -3.01938427       0.01158300      -0.01530780      -0.00076478
Co       0.00000000       0.00000000       0.00000000       0.95275605       0.45925650       0.10269166
H        0.50847709       2.35535563       1.08260612      -0.00975624      -0.03581835       0.01327161
H       -0.97160214       2.46756182       3.41919975      -0.01308337      -0.00082646      -0.01448368
H       -2.37882986      -0.29462355       3.64567340      -0.01119153      -0.00177580      -0.00141147
H       -0.16524475      -2.42237023       3.61352797      -0.00517540      -0.00545838      -0.00552933
H        0.23736499       0.18950769       5.15151478      -0.01180701      -0.00633859       0.02327839
H        1.97798428       2.01979833       3.29254888      -0.00216561       0.00690470       0.00660976
H        2.37956023       0.57312857       1.06042060      -0.03190226      -0.00820685       0.01686836
H       -2.17196079       1.33960432       1.08531271       0.01563119      -0.01936430       0.02016487
H       -1.76997567      -1.85655562       1.19127024      -0.00863170      -0.00377601       0.01822889
H        1.41932120      -2.14912478       1.06723084      -0.01803263       0.01200024       0.00839398
H        2.52551327      -0.94236759       3.40229490      -0.00040536      -0.01011330      -0.00927323
H        1.81816706       1.61837430      -1.07323338      -0.02694404      -0.02788719      -0.01617382
H        2.71445512       0.35137304      -3.38417075       0.01120699      -0.00947778       0.00999598
H        1.09436985      -2.28642456      -3.56344151       0.00605047      -0.01084518       0.00000718
H       -1.87565404      -1.51196434      -3.61295241      -0.00107788      -0.00690888       0.00552572
H        0.16139797       0.16914024      -5.14221035       0.00055748      -0.01364215      -0.02576819
H        0.77074085       2.64742555      -3.31449920       0.00726174       0.00276075      -0.00818852
H       -0.68227652       2.25830199      -1.10673336       0.01050173      -0.03711610      -0.01680384
H        2.33085666      -1.20457337      -1.01306536      -0.02448587       0.00236321      -0.01445858
H       -0.58955127      -2.53131971      -1.13220070       0.00321055      -0.01064240      -0.01944361
H       -2.52121285       0.04141894      -1.09699898       0.01811443      -0.01120796      -0.01247295
H       -2.01253831       1.57175082      -3.44247399      -0.00637668      -0.00881600       0.01239781
