45
Properties=species:S:1:pos:R:3:forces:R:3 charge=-1 spin=1 energy=-242.2777862548828 free_energy=-242.2777862548828 stress="-5.872254149608125e-08 2.615530902971841e-08 -2.1316662213166637e-08 2.615530902971841e-08 -8.664079587106244e-08 1.0490083468539524e-07 -2.1316662213166637e-08 1.0490083468539524e-07 -1.2751080191719666e-07" pbc="F F F"
C        0.69517741      -1.25683188       1.55400000       0.15923879      -0.12282860       0.22369607
B        1.33685960      -0.73629473       3.03096358       0.00028571       0.00196823      -0.00107839
B        0.88939307       0.97625854       3.09112395      -0.00157697      -0.00003584      -0.00174296
B       -0.89246298       1.05809523       3.07377523      -0.00028040      -0.00155966      -0.00089090
B       -0.06866322      -0.25601808       3.97888569       0.00091367       0.00064719      -0.00131431
B       -0.13227718      -1.69163109       3.02268578       0.00021959       0.00149064      -0.00071172
C       -0.89778149      -1.19366595       1.56400000      -0.09007239      -0.04835677      -0.00244761
B        1.40186652       0.27524732       1.55093676       0.00713199       0.00146174      -0.00204025
B        0.02875988       1.42612697       1.60283333      -0.00103773      -0.00276279       0.00024457
B       -1.43584469       0.39303081       1.51079012       0.00597388      -0.00217326      -0.00117745
B       -1.50131986      -0.60201287       3.02159026       0.00193808      -0.00185174      -0.00039454
C        1.14300000       0.92400000      -1.55300000       0.12949468      -0.00398913      -0.08748747
B        1.62524248       0.19382305      -2.99316739      -0.00005262      -0.00064198       0.00149701
B        0.67714313      -1.29937556      -3.03548125      -0.00122327       0.00062139       0.00133267
B       -1.04546554      -0.83789840      -3.08277021      -0.00035408       0.00188299       0.00082909
B        0.16213167       0.14808756      -3.96992548       0.00108605       0.00025922       0.00066838
B        0.51859791       1.55084360      -3.03067693       0.00078712      -0.00029010       0.00038539
C       -0.40000000       1.32300000      -1.56800000      -0.14057843       0.27944008      -0.22170162
B        1.33152674      -0.74585162      -1.48632726       0.00651556      -0.00338731       0.00177461
B       -0.32257289      -1.43412214      -1.57694109       0.00034332       0.00437632      -0.00135262
B       -1.41775920      -0.01517923      -1.55266564       0.00586915       0.00054568       0.00071381
B       -1.11825788       0.92996471      -3.05365266       0.00220957       0.00167495       0.00064252
Co       0.00000000       0.00000000       0.00000000      -0.09041790      -0.10767613       0.09192191
H        1.18169552      -2.09397065       1.04457906      -0.00011244       0.00010965       0.00095469
H        2.34853198      -1.22300673       3.43195744       0.00277035       0.00217851      -0.00191352
H        1.56199836       1.77172314       3.67391386       0.00063394       0.00189012      -0.00198825
H       -1.50197700       1.91638132       3.63638023      -0.00021498       0.00074451       0.00273732
H       -0.07812864      -0.27987539       5.16910653       0.00335313       0.00055898       0.00027898
H       -0.18561640      -2.83796080       3.32768418       0.00223443       0.00069866       0.00006475
H       -1.44795443      -1.98055498       1.03967264       0.00443377       0.00632695       0.00388402
H        2.49477055       0.42839757       1.08967818      -0.00483729      -0.00020793       0.00333097
H        0.07184620       2.54925806       1.18897206      -0.00137461       0.00219401      -0.00041159
H       -2.51639610       0.64398841       1.06982101      -0.00193992      -0.00102556      -0.00379474
H       -2.56449029      -0.97636868       3.40997411       0.00124437      -0.00149128       0.00242902
H        1.84728844       1.58050780      -1.03322080      -0.00291979      -0.00359572      -0.00213696
H        2.74620308       0.33251137      -3.37388932       0.00149161      -0.00232528       0.00243694
H        1.09295516      -2.27500269      -3.58277913       0.00023770      -0.00155990       0.00098370
H       -1.86651443      -1.48254545      -3.66150414      -0.00037974       0.00019140      -0.00334605
H        0.18933105       0.15060889      -5.16004237       0.00302029      -0.00077122      -0.00069775
H        0.81469715       2.65598160      -3.34810780       0.00190978      -0.00171056       0.00026228
H       -0.69974501       2.25788679      -1.08345410       0.00071459      -0.00271308      -0.00171567
H        2.30525100      -1.21352722      -0.97476601      -0.00445811       0.00249016      -0.00552026
H       -0.62474358      -2.50707778      -1.14041531      -0.00360103      -0.00275884       0.00084481
H       -2.53883307       0.08308255      -1.15287762      -0.00071951       0.00081996       0.00385280
H       -2.00093155       1.61274432      -3.47297940       0.00210002       0.00114170      -0.00190210
