45
Properties=species:S:1:pos:R:3:forces:R:3 charge=-1 spin=1 energy=-54314.50915624398 free_energy=-54314.50915624398 stress="0.975631058216095 0.49115538597106934 -0.9551253318786621 0.49115538597106934 0.44801783561706543 -0.8540279269218445 -0.9551253318786621 -0.8540279269218445 0.9019643664360046" pbc="F F F"
C       -0.10649526      -1.43232565       1.55400000      -0.00389537       0.24356724      -0.14264128
B        0.73039853      -1.33433185       3.01994052       0.01109988       0.00147661      -0.00089658
B        1.28148035       0.34396649       3.11142180      -0.00626152       0.02064287       0.01968372
B       -0.15220924       1.38178416       3.10321338      -0.01255551       0.01110582      -0.01087554
B       -0.18340135      -0.16871029       3.98929668      -0.00083145      -0.00579497       0.00870222
B       -1.03286242      -1.35002917       2.96587234      -0.00289420      -0.00772994      -0.00335118
C       -1.40483909      -0.50722494       1.56400000       0.39555532       0.08406381      -0.36921006
B        1.32506871      -0.52236791       1.55667860       0.01298928       0.03058954       0.02893174
B        0.80227959       1.17985282       1.60623347      -0.01555110       0.00898651      -0.00383220
B       -0.97846240       1.13054769       1.54418714      -0.00919580      -0.00965066      -0.03352771
B       -1.57421599       0.33748025       3.01605933      -0.00212875       0.00141382       0.00286252
C        1.14300000       0.92400000      -1.55300000      -0.40996495      -0.33143407       0.36400563
B        1.60491560       0.15889906      -2.97950791       0.01165442      -0.00541890       0.00231110
B        0.64031723      -1.32013855      -3.04432095      -0.01481881      -0.00574481      -0.02578027
B       -1.06701334      -0.85551161      -3.09213102      -0.01429695       0.00639873       0.00628440
B        0.13958891       0.11853112      -3.97348272       0.00951566       0.00666417      -0.01131125
B        0.51015680       1.54524786      -2.97819492       0.00447763       0.00807292       0.00303964
C       -0.40000000       1.32300000      -1.56800000       0.04380256       0.10758859       0.09921918
B        1.30665217      -0.76356295      -1.48403928      -0.01323597      -0.03011032      -0.02979098
B       -0.34418325      -1.43175169      -1.56136286      -0.01757345       0.00773435      -0.00918261
B       -1.43066859      -0.02026928      -1.56775923      -0.00099847       0.01829927       0.02402057
B       -1.14026799       0.91049112      -3.04125374      -0.00004690      -0.00230029      -0.00541315
Co       0.00000000       0.00000000       0.00000000       0.03332703      -0.17903522       0.11845642
H       -0.19043886      -2.38267244       1.05546700      -0.00168655      -0.00307865       0.00088290
H        1.29751385      -2.29543779       3.41093838      -0.00985768      -0.00775358       0.01968794
H        2.28673082       0.62096362       3.67315139       0.00477853      -0.00447882       0.01892345
H       -0.20496860       2.42487226       3.66348957      -0.00279795       0.00472989       0.00770060
H       -0.23673889      -0.24341887       5.17102988      -0.01508829       0.00064587       0.01558961
H       -1.69922895      -2.27478275       3.27492515      -0.01113252      -0.00701563       0.00477486
H       -2.27807510      -0.88095014       1.05615666       0.01053136       0.00979075      -0.02434052
H        2.33452141      -0.99550281       1.16133664       0.01534006       0.03369513       0.01896220
H        1.46345069       2.10348593       1.24379003      -0.00411211      -0.00035797      -0.00874025
H       -1.72447667       1.93090562       1.08172781       0.01174524       0.00242283      -0.04219307
H       -2.66533378       0.57093427       3.41037702      -0.00757243       0.00174434      -0.00215449
H        1.81377787       1.59415738      -1.04364382      -0.00142281       0.00460148       0.00086710
H        2.71546967       0.30265755      -3.35842118       0.00849171       0.01568843      -0.01705741
H        1.06436790      -2.29360557      -3.56875551       0.01541991      -0.00124412      -0.01868396
H       -1.90190325      -1.48074811      -3.65509857       0.00350462      -0.00224947      -0.01277899
H        0.18440124       0.17835422      -5.15625707      -0.00007160       0.01175570      -0.01852910
H        0.80245510       2.64098815      -3.30772296       0.00113938       0.01296264      -0.00446735
H       -0.66844474       2.25858569      -1.10500947      -0.00395375      -0.01314072       0.02164052
H        2.29244084      -1.25048278      -1.04792096      -0.01249314      -0.03148063      -0.01923488
H       -0.65190562      -2.51625034      -1.17399831      -0.00258478       0.00349384      -0.00365822
H       -2.53174537       0.07993859      -1.13431053       0.00291916      -0.01030432       0.03430421
H       -1.99407871       1.61357968      -3.46282761       0.00073116       0.00018792      -0.00319969
