45
Properties=species:S:1:pos:R:3:forces:R:3 charge=-1 spin=1 energy=-54314.255642907796 free_energy=-54314.255642907796 stress="1.5405352115631104 0.5139843225479126 0.10572593659162521 0.5139843225479126 0.5442465543746948 0.11182176321744919 0.10572593659162521 0.11182176321744919 -0.560580849647522" pbc="F F F"
C       -0.25305539       1.41381080       1.55400000       0.26183909       0.09194075      -0.01063012
B       -1.04812778       1.12878903       3.01685284       0.00807152       0.01158790       0.00818183
B       -1.19836701      -0.62978295       3.09098203       0.00276496       0.01128445       0.00724097
B        0.43413459      -1.30193792       3.07798400       0.01053001       0.00861232       0.00335610
B        0.10776054       0.20180369       3.98193095      -0.00595779       0.00712396       0.00735104
B        0.66628637       1.55554806       2.97299267      -0.00089111       0.00911454       0.00946609
C        1.23456177       0.84065881       1.56400000      -0.63573664      -0.42891765      -0.03602044
B       -1.43894852       0.20558534       1.54477393      -0.01797805       0.00787861      -0.00168409
B       -0.53499389      -1.32793230       1.56696830      -0.00318247      -0.00994552       0.01391512
B        1.19120110      -0.86485443       1.52850237      -0.00623519       0.00036438      -0.02426976
B        1.57881020       0.04153313       3.01473013      -0.00253502       0.00170543      -0.00250332
C        1.14300000       0.92400000      -1.55300000      -0.48072863      -0.03586693      -0.02963794
B        1.61111761       0.18090883      -2.99230789      -0.00080199       0.01307184      -0.01276742
B        0.66974677      -1.31376137      -3.04183246       0.00411744       0.00999628      -0.00823189
B       -1.04009468      -0.87652484      -3.06750384      -0.00418638       0.01019446      -0.00310124
B        0.13919582       0.11503379      -3.97119737       0.00241692       0.00044863      -0.00701864
B        0.49605699       1.54913205      -2.98352476       0.00449051       0.00469242      -0.01011863
C       -0.40000000       1.32300000      -1.56800000       0.07680825      -0.14378081      -0.04630530
B        1.33982505      -0.75345434      -1.49820665       0.02071413      -0.00259726       0.00306263
B       -0.30295667      -1.44379062      -1.52957745      -0.00369626      -0.01044874      -0.01643414
B       -1.41468758      -0.04729431      -1.53981921       0.00438484      -0.00237477       0.02215658
B       -1.14251025       0.88570587      -3.03156208       0.00245377      -0.00078388       0.00470896
Co       0.00000000       0.00000000       0.00000000       0.77768564       0.43583909       0.12399668
H       -0.39761792       2.37945702       1.09245230       0.00853349      -0.02785103       0.00160988
H       -1.81502057       1.93929657       3.41136557      -0.00423750       0.00803872      -0.00039492
H       -2.10931970      -1.14193760       3.64823650       0.00185197       0.00736676       0.00887793
H        0.73117132      -2.31143989       3.62205292       0.00048891       0.00912900       0.01904636
H        0.14535718       0.27080916       5.16467399      -0.00244758       0.01943795       0.00914251
H        1.09580321       2.61053592       3.29126769      -0.00130776       0.01448828      -0.00215002
H        2.00824055       1.41838943       1.08527458      -0.01391089      -0.02096571      -0.00188646
H       -2.52312899       0.44680764       1.13196148       0.01628371      -0.00862568      -0.00668625
H       -0.96839836      -2.37959571       1.23507372       0.00598889      -0.00610550       0.00191196
H        2.10987700      -1.48532938       1.12368584       0.00884179      -0.00326183      -0.00749431
H        2.69574834       0.05019590       3.40677136      -0.00400351       0.01353469       0.01267589
H        1.82405829       1.61846263      -1.08630460      -0.02746193      -0.01871193      -0.00313583
H        2.71631664       0.35219483      -3.37972074       0.00745093       0.00362402      -0.00240739
H        1.10151942      -2.28341812      -3.56715870       0.00054379       0.00603118      -0.01166973
H       -1.87104977      -1.51585703      -3.61872211       0.00233140       0.00660203      -0.01604887
H        0.16596246       0.17105757      -5.15494909       0.00970279       0.01415383      -0.00844082
H        0.77122543       2.65090473      -3.31431507       0.00636520       0.00958526       0.00240950
H       -0.68306568       2.26663065      -1.12798263      -0.00046999      -0.02397801       0.00375816
H        2.34156275      -1.21517730      -1.06928809      -0.02319939       0.00499290       0.00997860
H       -0.58278541      -2.53885220      -1.17449244      -0.00792018      -0.00339675      -0.00074171
H       -2.52495909       0.03029795      -1.14273003      -0.00748507       0.00166476       0.00422515
H       -2.01730512       1.56870765      -3.44376101       0.00971379       0.00510753      -0.00729255
