45
Properties=species:S:1:pos:R:3:forces:R:3 charge=-1 spin=1 energy=-242.2749786376953 free_energy=-242.2749786376953 stress="-5.298313610069272e-08 1.852932918211536e-08 -3.6554819171641384e-09 1.852932918211536e-08 -9.86578214678957e-08 1.1151525569630394e-07 -3.6554819171641384e-09 1.1151525569630394e-07 -1.1959431844843493e-07" pbc="F F F"
C        0.12387659      -1.43092718       1.55400000       0.05291590      -0.21219492       0.21992797
B        0.91200617      -1.21782890       3.04055868      -0.00161302      -0.00155250      -0.00205447
B        1.20022925       0.52830720       3.10032488       0.00055526      -0.00082167      -0.00134623
B       -0.39106476       1.33216348       3.07340301       0.00009898       0.00096275      -0.00079921
B       -0.17725551      -0.20591369       3.98123364      -0.00025316      -0.00127544      -0.00019385
B       -0.81557019      -1.49138634       3.02234205      -0.00119844       0.00059039      -0.00145669
C       -1.30567188      -0.72530748       1.56400000      -0.08574998       0.05220795       0.00054929
B        1.38789575      -0.32542138       1.55114538       0.00262192       0.00056116       0.00550318
B        0.60872926       1.28847638       1.60818093       0.00082758      -0.00055215      -0.00168574
B       -1.14861965       0.94884279       1.51617752      -0.00226957      -0.00238828      -0.00329413
B       -1.62265051       0.06388296       3.01566045      -0.00115772      -0.00224248      -0.00318488
C        1.14300000       0.92400000      -1.55300000       0.12338086       0.03938395      -0.08745183
B        1.62000910       0.19823002      -3.00063949      -0.00035499       0.00384809       0.00219251
B        0.67205970      -1.29474259      -3.04173816       0.00103603       0.00098084       0.00108843
B       -1.05128612      -0.83741878      -3.08072686      -0.00059813      -0.00032562       0.00097416
B        0.15549439       0.15133006      -3.97095260       0.00053156       0.00222465       0.00020294
B        0.51452132       1.55284510      -3.03043368      -0.00040344       0.00018169       0.00193562
C       -0.40000000       1.32300000      -1.56800000      -0.16934741       0.22237909      -0.23469603
B        1.33208939      -0.73953463      -1.48324138       0.00199506      -0.00111236      -0.00497265
B       -0.31955787      -1.43481528      -1.57831916       0.00120348       0.00028265       0.00093077
B       -1.41869603      -0.02265722      -1.55553718      -0.00042164       0.00325678       0.00249252
B       -1.12444684       0.93026431      -3.04730328       0.00017735       0.00178673       0.00226845
Co       0.00000000       0.00000000       0.00000000       0.08529328      -0.11212192       0.10106662
H        0.22328395      -2.39464381       1.04612001       0.00150254      -0.00384039       0.00290208
H        1.63953673      -2.07246213       3.44252433      -0.00146168      -0.00020382      -0.00026464
H        2.13861052       0.98117132       3.68291471       0.00006525      -0.00090594       0.00095108
H       -0.59868728       2.36237392       3.63910785       0.00010406       0.00295199      -0.00090388
H       -0.20014430      -0.22339590       5.17138495      -0.00100142       0.00063238       0.00063701
H       -1.33015973      -2.51790910       3.32477546      -0.00058204       0.00171331      -0.00031951
H       -2.12930634      -1.21361102       1.03525195      -0.00279596      -0.00322000      -0.00246631
H        2.47011007      -0.64390637       1.15954882      -0.00166190      -0.00224101      -0.00927493
H        1.12763776       2.28639107       1.19673979       0.00153907       0.00128751      -0.00262184
H       -2.01317277       1.61279448       1.02559930       0.00166648      -0.00207820      -0.00239009
H       -2.74731972       0.15092797       3.40149086      -0.00035968       0.00240187      -0.00119947
H        1.84474385       1.58517320      -1.03625572       0.00102124       0.00258715       0.00391351
H        2.74143236       0.33379387      -3.38142379      -0.00174141       0.00167394      -0.00070700
H        1.08845602      -2.27117229      -3.58749576       0.00012323       0.00111490      -0.00153860
H       -1.87150316      -1.48083110      -3.66181416      -0.00153647      -0.00180250       0.00069817
H        0.17975178       0.15524413      -5.16119534      -0.00146946       0.00128364      -0.00040686
H        0.81245381       2.65771802      -3.34718775      -0.00234610      -0.00072205       0.00089151
H       -0.70488015       2.25410772      -1.07993180       0.00103673       0.00514642       0.00019558
H        2.33219457      -1.21281722      -1.03615335       0.00061171       0.00376616       0.00827965
H       -0.60076184      -2.51433869      -1.14381503      -0.00046619      -0.00146110      -0.00069987
H       -2.52354805       0.06644926      -1.10675921       0.00252814      -0.00106582       0.00496099
H       -2.00574336       1.61568455      -3.46514626      -0.00204563      -0.00107823       0.00136617
