45
Properties=species:S:1:pos:R:3:forces:R:3 charge=-1 spin=1 energy=-54314.51758291024 free_energy=-54314.51758291024 stress="0.6486125588417053 0.450126588344574 -0.6696047782897949 0.450126588344574 1.0605294704437256 -1.3366894721984863 -0.6696047782897949 -1.3366894721984863 1.8534963130950928" pbc="F F F"
C        0.78115616      -1.20527717       1.55400000      -0.14923456       0.07319300      -0.22849777
B        1.40273985      -0.62636545       3.01523160       0.00069991       0.00141108      -0.00037129
B        0.83813698       1.04873584       3.11135831       0.00267408      -0.00078999      -0.00068645
B       -0.93240664       1.01839474       3.10096417       0.00157542      -0.00138310       0.00211715
B       -0.02738775      -0.24229931       3.98673323       0.00056095      -0.00273112      -0.00029661
B       -0.00293331      -1.69790767       2.96385236      -0.00005880       0.00064150       0.00146810
C       -0.81232861      -1.25338431       1.56400000       0.24830101       0.54204196      -0.37627390
B        1.38110693       0.38142284       1.55497361       0.00043058      -0.00006842       0.00560645
B       -0.05351302       1.43117351       1.60476594       0.00017222       0.00318538       0.00238407
B       -1.45101484       0.32443334       1.54027260      -0.00074355       0.00002251      -0.00498637
B       -1.44654795      -0.66979175       3.01513326       0.00260750      -0.00071756      -0.00183575
C        1.14300000       0.92400000      -1.55300000      -0.31310755      -0.10349779       0.50189680
B        1.63440223       0.17562794      -2.97574756       0.00097006      -0.00177677       0.00092803
B        0.68573364      -1.31409027      -3.05852155       0.00335129       0.00045110       0.00158483
B       -1.02610311      -0.86378424      -3.11040447       0.00260305       0.00088505      -0.00224259
B        0.17621196       0.12808988      -3.97986231       0.00199800       0.00193281       0.00026115
B        0.52094238       1.55324588      -2.97369934       0.00005283      -0.00082799      -0.00249588
C       -0.40000000       1.32300000      -1.56800000      -0.01799505      -0.14015502       0.07443996
B        1.32495994      -0.75597875      -1.49104360       0.00114981       0.00060405      -0.00673495
B       -0.31320704      -1.43817895      -1.57864164      -0.00108172      -0.00289202      -0.00372828
B       -1.41661415      -0.04019091      -1.58110349      -0.00141109       0.00064526       0.00496907
B       -1.12077712       0.90094734      -3.05118900       0.00255093       0.00011633       0.00208333
Co       0.00000000       0.00000000       0.00000000       0.23058088      -0.37629649       0.03057131
H        1.28534803      -2.01260187       1.04918514      -0.00297535       0.00053876       0.00546409
H        2.42782632      -1.06581475       3.41071401      -0.00047477       0.00001045      -0.00286357
H        1.47753933       1.86998412       3.67817318      -0.00008886      -0.00061291       0.00035093
H       -1.60066153       1.81755157       3.66650522      -0.00019150       0.00142031      -0.00087785
H       -0.02853669      -0.33689414       5.16895619       0.00043279      -0.00056027      -0.00070165
H        0.02047231      -2.83682663       3.27704619      -0.00043549      -0.00004331      -0.00234434
H       -1.28296614      -2.07126420       1.04490071      -0.00166347       0.00389034       0.00454545
H        2.45832281       0.61235692       1.10744173       0.00080560      -0.00481934      -0.00046387
H       -0.07492104       2.56396310       1.23289634       0.00088767       0.00214499       0.00247082
H       -2.52817321       0.53162307       1.09659634      -0.00474600       0.00155583       0.00784496
H       -2.45998240      -1.13253944       3.41404721       0.00148318       0.00196658      -0.00350675
H        1.80768645       1.59389871      -1.03358190      -0.00315153       0.00008698      -0.00411252
H        2.74458142       0.34756925      -3.34751400      -0.00054412       0.00023165       0.00257604
H        1.12566315      -2.27818092      -3.58921681      -0.00052266       0.00150846      -0.00042072
H       -1.84924392      -1.49145152      -3.68789782      -0.00027403      -0.00054341       0.00090511
H        0.22627176       0.19969188      -5.16259773       0.00039781       0.00137027       0.00065759
H        0.80876180       2.65252011      -3.29665452      -0.00094826       0.00074303       0.00272500
H       -0.67474613       2.25162236      -1.09528773      -0.00231320      -0.00256059      -0.00337165
H        2.29680129      -1.23301047      -0.99952740       0.00210330       0.00458559      -0.00102079
H       -0.60706599      -2.52546905      -1.18678854       0.00033328      -0.00260737      -0.00428051
H       -2.52390947       0.02931039      -1.17107902      -0.00529568      -0.00032336      -0.00774155
H       -1.97872964       1.59289338      -3.48160584       0.00053486      -0.00197695       0.00400496
