45
Properties=species:S:1:pos:R:3:forces:R:3 charge=-1 spin=1 energy=-242.30455017089844 free_energy=-242.30455017089844 stress="1.6470751873498557e-08 2.6424487042930878e-09 -2.4976493762096652e-08 2.6424487042930878e-09 1.6762241594747707e-09 4.9818904557241694e-08 -2.4976493762096652e-08 4.9818904557241694e-08 3.6389632640521086e-08" pbc="F F F"
C        1.45327481      -0.28448990       1.59354812       0.00544703       0.00386751       0.01758927
B        1.46062687       0.54605590       3.05057113      -0.00783697       0.00739114      -0.00083716
B       -0.14026801       1.29980668       3.11043267      -0.00151689      -0.00289957       0.00073111
B       -1.34797254      -0.01287461       3.10678429       0.00398108      -0.00687618      -0.00239074
B        0.19139526      -0.22404169       4.00189125      -0.00751526      -0.00052653      -0.00025392
B        1.24738034      -1.19695949       3.03642946      -0.00384926      -0.00048313       0.00931080
C        0.36645067      -1.46365444       1.58335578      -0.01629916      -0.00619559       0.01628157
B        0.71743249       1.22756630       1.56129810       0.00630304       0.00195391      -0.00042652
B       -1.05819329       0.92538152       1.63600000       0.10980064       0.04852715      -0.10425018
B       -1.18603476      -0.84593324       1.51782203       0.00464806      -0.00561127      -0.03711817
B       -0.46692507      -1.54446258       3.04178676      -0.00564042      -0.00350488       0.00056236
C        1.13048242       0.97130448      -1.58455284      -0.00452009       0.00865486      -0.01025361
B        1.62352579       0.25104414      -3.01909900       0.00045288      -0.00480516       0.00432775
B        0.70496927      -1.25796683      -3.07122990      -0.00004283       0.00178015      -0.00005068
B       -1.02479284      -0.82650896      -3.10656089       0.00217895       0.00511539       0.00253229
B        0.15997815       0.18150026      -3.99954652      -0.00385087      -0.00392863       0.00092570
B        0.49388417       1.59144565      -3.05446898      -0.00457912       0.00076981      -0.00828770
C       -0.42460100       1.36317315      -1.61795364      -0.01663141      -0.00190154      -0.01743415
B        1.34223271      -0.69124376      -1.51240634       0.00792718       0.00306957      -0.00725955
B       -0.27500000      -1.43300000      -1.61500000      -0.01825136       0.13288462       0.07346456
B       -1.38589969      -0.00877929      -1.55604539       0.00125286       0.00576445       0.04238395
B       -1.13373527       0.94176532      -3.08086507      -0.00771023      -0.00587018      -0.00382494
Co       0.00000000       0.00000000       0.00000000      -0.07057301      -0.18264124       0.02212789
H        2.39881898      -0.45285998       1.07293708       0.03442165      -0.01827059       0.03003406
H        2.48096468       1.01647135       3.45057113      -0.00773567      -0.00114951       0.00741121
H       -0.30804718       2.33237830       3.68509706      -0.00771266      -0.00196917       0.00600255
H       -2.39233024       0.06991662       3.68050518      -0.00157429      -0.01019743      -0.00799581
H        0.21392410      -0.24513035       5.19205809      -0.00273572      -0.00306264      -0.00033714
H        2.08899251      -1.97626055       3.34385243       0.00199896      -0.00163935       0.00362515
H        0.60726913      -2.38721144       1.05016402       0.00067862      -0.00557120      -0.00124097
H        1.31146446       2.17010618       1.12357101      -0.01012878       0.00159170      -0.00868378
H       -1.88039900       1.69292204       1.22743854      -0.00175425       0.00326690       0.00316900
H       -2.08110293      -1.51031877       1.08415648       0.01753058       0.00132984      -0.01023700
H       -0.86164937      -2.59929060       3.43302797      -0.00359900      -0.00385070      -0.00531103
H        1.81955195       1.63919957      -1.06126736       0.00677489       0.03730560      -0.02379708
H        2.74244679       0.40578294      -3.40067609      -0.00156593       0.00625212      -0.00139670
H        1.14231471      -2.22000303      -3.62578682       0.00024839      -0.00279105      -0.00240122
H       -1.84284365      -1.47867954      -3.68262825      -0.00029305       0.00240823       0.00494218
H        0.18438045       0.19099072      -5.18977460       0.00418847      -0.00228322       0.00160891
H        0.78028343       2.69742577      -3.37801686      -0.00458125       0.00442317      -0.00155140
H       -0.74200823       2.28089060      -1.11396238      -0.00898160       0.00435377      -0.00689928
H        2.34559850      -1.14030188      -1.04056881      -0.00306958      -0.00328105       0.00167927
H       -0.55882050      -2.51100026      -1.18199177       0.00669610      -0.00071161       0.00614764
H       -2.50899741       0.05634086      -1.14856784       0.01255148       0.00388758       0.00900161
H       -2.03251549       1.60152084      -3.50346406      -0.00453201      -0.00457647      -0.00162034
