45
Properties=species:S:1:pos:R:3:forces:R:3 charge=-1 spin=1 energy=-242.2880401611328 free_energy=-242.2880401611328 stress="-5.791883950223564e-08 8.456897404585106e-09 -5.137644976116462e-08 8.456897404585106e-09 -9.39816189315934e-08 6.253390694155314e-08 -5.137644976116462e-08 6.253390694155314e-08 -2.0476761619647732e-07" pbc="F F F"
C        1.34135047       0.51349481       1.55400000       0.13968921       0.14047578       0.30244157
B        0.90349179       1.22188141       3.02603181       0.00032853       0.00182214      -0.00068393
B       -0.85150130       1.02212588       3.08020587      -0.00092386       0.00269274       0.00044907
B       -1.18484092      -0.73088915       3.05667650      -0.00072153      -0.00098859       0.00070783
B        0.22101268      -0.10471465       3.97222510       0.00145116       0.00084918       0.00087132
B        1.64013006      -0.37007673       3.02601197       0.00026806      -0.00040916      -0.00106914
C        1.05710224      -1.05517053       1.56400000       0.00211805      -0.10067704       0.06917930
B       -0.07131465       1.43450326       1.54796215       0.00028291      -0.00044745      -0.00170152
B       -1.40752979       0.24208963       1.57984281      -0.00181380       0.00182841       0.00056812
B       -0.59137112      -1.35148301       1.47878091      -0.00028311      -0.00354570      -0.00073243
B        0.36889863      -1.56947093       3.01508152       0.00185734      -0.00012280      -0.00151552
C        1.14300000       0.92400000      -1.55300000       0.09634584      -0.01825714      -0.19874854
B        1.61737716       0.19549871      -2.99729714       0.00049096       0.00146668      -0.00006191
B        0.67353461      -1.29577773      -3.04473878       0.00095591      -0.00066236      -0.00193228
B       -1.05174821      -0.83741575      -3.07575709      -0.00203907       0.00032479      -0.00104137
B        0.14515017       0.14833373      -3.96965058       0.00000327       0.00268253      -0.00145484
B        0.50446230       1.54982735      -3.02840243      -0.00023106       0.00113917       0.00056122
C       -0.40000000       1.32300000      -1.56800000      -0.15406278       0.32605982      -0.22704226
B        1.34107429      -0.74335563      -1.50464212       0.00179845       0.00018805       0.00169030
B       -0.30840665      -1.43718165      -1.57153727       0.00134120      -0.00461683      -0.00122730
B       -1.40458552      -0.02223385      -1.51954165      -0.00098863       0.00093611      -0.00050133
B       -1.13026658       0.92472472      -3.04471281      -0.00090123       0.00191844       0.00153158
Co       0.00000000       0.00000000       0.00000000      -0.06841590      -0.35763872       0.07073468
H        2.25546326       0.87339789       1.07182708      -0.00272071      -0.00266944       0.00190460
H        1.52886195       2.15015353       3.43557239      -0.00022830       0.00152132       0.00000903
H       -1.54901069       1.79796650       3.65944624      -0.00156641       0.00153749       0.00059391
H       -2.12723803      -1.21630734       3.60569550      -0.00136842       0.00045737       0.00098035
H        0.23721233      -0.11671558       5.16209844      -0.00045952       0.00154521       0.00045128
H        2.76414280      -0.58320028       3.34283226       0.00048086       0.00113706       0.00059853
H        1.76011086      -1.71551285       1.04988206      -0.00372713       0.00853333      -0.00170314
H       -0.07438280       2.54146785       1.09184373       0.00014034      -0.00005795       0.00037745
H       -2.51653314       0.44647373       1.18266352      -0.00099368       0.00074785       0.00043310
H       -0.99315897      -2.38609103       1.03872299       0.00074877      -0.00008637      -0.00251912
H        0.58119003      -2.67652270       3.40223932      -0.00039528       0.00087088       0.00157672
H        1.85129215       1.59429883      -1.05679583      -0.00387603      -0.00204987      -0.00260642
H        2.73370145       0.34217275      -3.38752101      -0.00055629       0.00076183      -0.00203465
H        1.08502633      -2.27003152      -3.59699801      -0.00105450      -0.00041948      -0.00306940
H       -1.87891368      -1.48398067      -3.64379673      -0.00183605      -0.00038928      -0.00071314
H        0.16910314       0.15470400      -5.15936570      -0.00138369       0.00086752      -0.00121991
H        0.79834470       2.65424078      -3.34931708      -0.00027756       0.00144586      -0.00021693
H       -0.70121542       2.25577706      -1.08051982       0.00227761      -0.00623688      -0.00412017
H        2.32393430      -1.21830401      -1.01719682       0.00078106      -0.00066750      -0.00187089
H       -0.60634673      -2.52396630      -1.17562748       0.00086070      -0.00122591       0.00105343
H       -2.51944264       0.06978215      -1.09851137       0.00021271      -0.00130206       0.00081763
H       -2.01968323       1.60256526      -3.45707512      -0.00160806       0.00066105       0.00025532
