45
Properties=species:S:1:pos:R:3:forces:R:3 charge=-1 spin=1 energy=-54314.62307836312 free_energy=-54314.62307836312 stress="-0.2574848234653473 -0.5152086615562439 -0.012439228594303131 -0.5152086615562439 0.13919824361801147 0.054256077855825424 -0.012439228594303131 0.054256077855825424 0.4177723824977875" pbc="F F F"
C       -1.17175013      -0.90503635       1.45539496      -0.01752413       0.01414372      -0.02708283
B       -0.63094480      -1.48915753       2.94867871      -0.00712267      -0.01555136      -0.01968059
B        0.99671920      -0.83450796       3.12686681      -0.00514286      -0.01777285      -0.00204696
B        0.87269232       0.93201030       3.11707945       0.01321093      -0.01899802       0.00301589
B       -0.38134091      -0.03555398       3.93924899       0.00804892      -0.02721406      -0.00002752
B       -1.77506265      -0.14875956       2.84563727       0.00315304      -0.00740457      -0.00344609
C       -1.29432929       0.67368900       1.46105707       0.00882175       0.03617230       0.00520914
B        0.44364170      -1.41594476       1.51932520      -0.01647308      -0.01164732      -0.01560765
B        1.40485695       0.04980906       1.63600000      -0.00960400       0.38291571      -0.05715436
B        0.23817569       1.40862069       1.54094793       0.00941176       0.01188580      -0.00766113
B       -0.83947493       1.35327702       2.94385207       0.01321426      -0.00999497       0.00119769
C        1.10799678       0.95634017      -1.45950498      -0.00978814       0.01811750       0.02571317
B        1.61720421       0.28779894      -2.92635034       0.01570178       0.00078940       0.01692466
B        0.69867238      -1.20963274      -3.08913350       0.01840005       0.00185076       0.00174546
B       -1.02103236      -0.78738135      -3.12212588       0.01408724      -0.01546086      -0.00242697
B        0.16196176       0.26577542      -3.94532366       0.02439265      -0.01391748      -0.00091726
B        0.48883830       1.64518087      -2.87818726       0.00741162      -0.00577467       0.00341225
C       -0.42795976       1.34412368      -1.50335416      -0.03637443      -0.00321769      -0.00428105
B        1.33360100      -0.72748879      -1.47948587       0.01311112       0.01336133       0.01387963
B       -0.27500000      -1.43300000      -1.61500000      -0.27352941       0.21977261       0.10401279
B       -1.40858194      -0.04569962      -1.56665757      -0.01474998      -0.00535987       0.00453372
B       -1.14780491       0.97418777      -2.98998405       0.00843611      -0.01266201      -0.00248019
Co       0.00000000       0.00000000       0.00000000       0.18413694      -0.45818460      -0.03348205
H       -1.93129298      -1.44888060       0.91981209      -0.01022073      -0.01078346      -0.02540230
H       -1.02662640      -2.53852285       3.32399854      -0.01643518      -0.00958914      -0.00547210
H        1.82604300      -1.42074825       3.73598820      -0.00805195      -0.02218531      -0.00274275
H        1.61073739       1.64543491       3.70989145       0.00397670      -0.01868782       0.01797557
H       -0.53541740      -0.03595469       5.11484464       0.00094832      -0.02724259       0.00351180
H       -2.92832074      -0.23179521       3.09116274      -0.00117943       0.00648829       0.00071041
H       -2.13100832       1.09347671       0.92620730       0.00377101       0.04365822       0.01351849
H        0.75638614      -2.47869539       1.10266152       0.00128645      -0.01052226      -0.02620443
H        2.55057297       0.14083747       1.33465390       0.00425086       0.00833676      -0.04874239
H        0.39433958       2.49485328       1.08106106       0.01785168       0.01346616      -0.01083860
H       -1.38976782       2.34238982       3.29472437       0.01874574      -0.01698570       0.02707473
H        1.76353298       1.62676429      -0.93004039       0.01507638       0.00646733       0.02486788
H        2.72566168       0.49114300      -3.28503080       0.01094607       0.00973411       0.00160261
H        1.15042888      -2.13730461      -3.67049231       0.01879466       0.00126726       0.00411565
H       -1.83870888      -1.40402689      -3.71891064       0.01490360      -0.00938897      -0.01469010
H        0.21120644       0.39139208      -5.12321541       0.02509910      -0.00828426      -0.00497494
H        0.77068544       2.76178186      -3.14469497      -0.00367371       0.00006723      -0.00338597
H       -0.71129306       2.25224562      -0.99610642      -0.03883250       0.00531698      -0.01362263
H        2.32092386      -1.20566300      -1.03468265       0.00713134      -0.00342825       0.02708848
H       -0.56367382      -2.53775582      -1.28809219      -0.01195779      -0.00049737       0.04823940
H       -2.51317342      -0.00409846      -1.12626348      -0.01707251      -0.01259879       0.00962775
H       -2.02253410       1.67554404      -3.37355637       0.01341217      -0.02045721      -0.02560618
