45
Properties=species:S:1:pos:R:3:forces:R:3 charge=-1 spin=1 energy=-54314.527169244466 free_energy=-54314.527169244466 stress="0.9551101922988892 0.07154746353626251 0.18257999420166016 0.07154746353626251 1.0172853469848633 -1.3567368984222412 0.18257999420166016 -1.3567368984222412 2.334981679916382" pbc="F F F"
C        1.43618617      -0.01634865       1.55400000      -0.26374131      -0.00610282      -0.02430489
B        1.29121291       0.82011878       3.01851598       0.00087549      -0.00433110       0.00438345
B       -0.42151931       1.26555568       3.11164190       0.00447120       0.00599286      -0.01089073
B       -1.36998674      -0.23129962       3.08601261      -0.00074461       0.01387827      -0.00140246
B        0.18052988      -0.16862836       3.98191471      -0.00826053       0.00560126      -0.00559006
B        1.41387279      -0.94223706       2.96403096      -0.00178146      -0.00217764      -0.00704061
C        0.59443463      -1.37021804       1.56400000      -0.11378568       0.52396894      -0.55929303
B        0.43578960       1.35926415       1.56302618      -0.00823908       0.00223521      -0.01291197
B       -1.23423561       0.74057722       1.59567168       0.00621799       0.00712532      -0.01869312
B       -1.07266890      -1.03677149       1.51167493      -0.01398265       0.03248719      -0.01604279
B       -0.24142845      -1.58296233       3.00201040       0.00211493       0.00437764       0.00966778
C        1.14300000       0.92400000      -1.55300000      -0.40925613      -0.31602544       0.23659651
B        1.62025342       0.16769073      -2.98345925      -0.00249168       0.00548586      -0.00682106
B        0.65417739      -1.31513291      -3.05898480       0.00798377       0.00286615       0.00786800
B       -1.05642409      -0.85334579      -3.08976329       0.00675677      -0.00535423      -0.00149764
B        0.15142849       0.12887536      -3.97445310      -0.00509245      -0.00427656       0.00482802
B        0.51796165       1.55090448      -2.97569713      -0.00234917       0.00257858       0.00857928
C       -0.40000000       1.32300000      -1.56800000       0.09098098       0.02327329       0.34209621
B        1.30913005      -0.76434545      -1.50583642      -0.00538457      -0.00433292       0.01022178
B       -0.33750746      -1.44089450      -1.56713100       0.00705795       0.00052926       0.01284672
B       -1.42873031      -0.02925578      -1.54550714       0.01323289      -0.03042222       0.02367901
B       -1.13243832       0.90745607      -3.03380603       0.00529820       0.00089442      -0.01085504
Co       0.00000000       0.00000000       0.00000000       0.68743879      -0.28882048       0.02175066
H        2.39384787      -0.04655970       1.06031505       0.00844865      -0.01194632      -0.00849066
H        2.22166753       1.43312117       3.41894895       0.00183613       0.00020907      -0.00051746
H       -0.75873348       2.24681318       3.68489038      -0.00104754      -0.00080443      -0.00718748
H       -2.40218078      -0.35411482       3.65507226      -0.00781917       0.00442083      -0.01243457
H        0.25550629      -0.22661788       5.16447950      -0.00996527      -0.00071090      -0.01001740
H        2.37587603      -1.55382691       3.27659344      -0.00674267      -0.00222649       0.00253891
H        1.01667890      -2.21212011       1.04110787       0.00475442      -0.00658705      -0.00083474
H        0.83371721       2.39076640       1.11657399       0.01805328      -0.01114861      -0.02491571
H       -2.19015424       1.34489639       1.22670926       0.01615712       0.00841991       0.00608194
H       -1.82500725      -1.83235763       1.06087209      -0.00829781       0.01758617       0.00077488
H       -0.41022180      -2.68502569       3.39743685      -0.01112083      -0.00838170      -0.00911112
H        1.81172802       1.59968139      -1.04565511       0.00139437       0.01310881       0.00591490
H        2.72931837       0.32952858      -3.36502198       0.00118706       0.00365360      -0.00052291
H        1.08245049      -2.28268345      -3.59355409      -0.00325454       0.00417435       0.00103207
H       -1.88549478      -1.47273426      -3.66701041      -0.00426929      -0.00242427       0.00599939
H        0.19214169       0.19875848      -5.15798042      -0.00848518       0.00185328       0.00996384
H        0.80465769       2.65003175      -3.30210143      -0.00678660      -0.00030232       0.00160503
H       -0.66958089       2.25294635      -1.09376595       0.00097962       0.00583447       0.00288810
H        2.28115763      -1.25717726      -1.02305397       0.00354611       0.02328247       0.02894412
H       -0.63632573      -2.52336190      -1.17512103       0.02157162       0.00486723      -0.01304363
H       -2.53099013       0.06587618      -1.12365244       0.00542653      -0.01592484       0.00361593
H       -1.98560141       1.60728602      -3.45972441      -0.01288592       0.00359566       0.01054222
