45
Properties=species:S:1:pos:R:3:forces:R:3 charge=-1 spin=1 energy=-54314.46361257332 free_energy=-54314.46361257332 stress="-0.16459962725639343 0.2169760763645172 -0.0037756403908133507 0.2169760763645172 0.03345644846558571 0.0732933059334755 -0.0037756403908133507 0.0732933059334755 -0.30908846855163574" pbc="F F F"
C        1.36919612       0.50704358       1.49843404       0.01104361      -0.02638558       0.01047585
B        1.00835766       1.23656727       2.98258536      -0.00156153      -0.01146837       0.00590827
B       -0.74483991       1.06634991       3.13306567      -0.00154760       0.00354187       0.00909917
B       -1.12695412      -0.66305592       3.11690109      -0.00228133      -0.00142508       0.00006427
B        0.34082668      -0.08337255       3.95953032      -0.01025657      -0.00979794       0.00610940
B        1.71696040      -0.37853422       2.88322325      -0.00299490      -0.01699664      -0.00517730
C        1.02544121      -1.03464260       1.47865417      -0.00728862      -0.02566394       0.00188338
B       -0.02660096       1.45537493       1.55774867      -0.00853337      -0.00563065       0.01281720
B       -1.37310780       0.30112950       1.63600000      -0.25290546       0.11432969      -0.10713772
B       -0.64643331      -1.31110349       1.52223381       0.00759278      -0.01721840      -0.01074696
B        0.38984863      -1.54688145       2.95951393       0.00533497      -0.00222675      -0.01761342
C        1.04784226       0.99440989      -1.49773233      -0.01544272       0.02462671      -0.00966653
B        1.58062123       0.33788368      -2.96374377      -0.01638202       0.00546245      -0.00375724
B        0.70165018      -1.19082684      -3.10141612      -0.00074033      -0.00218129      -0.01110989
B       -1.03050569      -0.82199485      -3.11100593      -0.00689973      -0.00292048      -0.00222107
B        0.11661767       0.26090194      -3.95687328      -0.02155207      -0.00325816      -0.00704277
B        0.40385751       1.65400975      -2.90081241      -0.01753598       0.00350949       0.00881098
C       -0.49892245       1.32295023      -1.49853189      -0.02157017       0.00550569       0.00026488
B        1.33055173      -0.67167641      -1.52934834      -0.00942383      -0.00455878      -0.01344659
B       -0.27500000      -1.43300000      -1.61500000       0.02621455      -0.00233560       0.12094869
B       -1.44143159      -0.09177439      -1.53045800      -0.01001984       0.01097297       0.00766626
B       -1.20805281       0.92734507      -2.98249211      -0.00588022       0.00388553       0.01398790
Co       0.00000000       0.00000000       0.00000000       0.46509355      -0.03609051      -0.00034661
H        2.26970047       0.80496566       0.98586860      -0.00141171      -0.01122853      -0.00907587
H        1.68862671       2.13265715       3.35229809       0.01430602      -0.02045782       0.00780950
H       -1.38725265       1.86531795       3.72611236       0.01024709       0.02067479       0.00878285
H       -2.03906057      -1.13654503       3.70553480      -0.00937440       0.02013755       0.01574278
H        0.47685962      -0.12765989       5.13615527      -0.00370284       0.00543468       0.01257522
H        2.84575024      -0.62974728       3.12803743      -0.01413118      -0.02714766       0.01890580
H        1.70844100      -1.68767782       0.96406629      -0.00454155      -0.00119661      -0.01407241
H       -0.01636706       2.55929549       1.10832431       0.01639334      -0.01111303       0.01337324
H       -2.49228107       0.55654663       1.32639252       0.02956796      -0.00461070      -0.00125209
H       -1.10575965      -2.31037718       1.08938419      -0.00837611      -0.01843856       0.00374719
H        0.63748241      -2.64794115       3.31670994      -0.02949121       0.01164802       0.01868688
H        1.68821235       1.69691851      -0.98934858      -0.00770480       0.00773120       0.00980949
H        2.68518327       0.57780246      -3.31800412      -0.02397780       0.02426869      -0.01723165
H        1.17540617      -2.11410238      -3.67242004       0.01610413       0.00241564      -0.01706869
H       -1.83058634      -1.46198603      -3.70485382       0.00416615      -0.01680484      -0.01213729
H        0.15021796       0.38351222      -5.13526047      -0.01135566      -0.00218546      -0.01374988
H        0.64858494       2.78052924      -3.16293638      -0.03934854      -0.00298219      -0.01739986
H       -0.81246641       2.22537457      -1.00218712      -0.01354635      -0.00062085       0.00680965
H        2.33786740      -1.10780562      -1.06551129      -0.00806520       0.01706621      -0.01259419
H       -0.50767977      -2.55078205      -1.28691905       0.00907680       0.03320093       0.00123948
H       -2.54665874      -0.08678450      -1.10976443      -0.01592625      -0.00192076      -0.00353389
H       -2.10134296       1.60075325      -3.36865395      -0.01137118      -0.02754689      -0.00913671
