45
Properties=species:S:1:pos:R:3:forces:R:3 charge=-1 spin=1 energy=-242.3018035888672 free_energy=-242.3018035888672 stress="-6.39143422631605e-08 2.5953896809483012e-08 -3.1530426269910095e-08 2.5953896809483012e-08 -8.066199796985529e-08 1.02083404840414e-07 -3.1530426269910095e-08 1.02083404840414e-07 -1.470747434950681e-07" pbc="F F F"
C        0.97858282      -1.05131996       1.55400000       0.19041646      -0.07067391       0.24478742
B        1.47578498      -0.38823315       3.03003693      -0.00037029       0.00208730       0.00096357
B        0.62625027       1.16500656       3.09126076       0.00145476      -0.00031804      -0.00105110
B       -1.12092328       0.81096891       3.07468222      -0.00019394       0.00120667      -0.00024311
B       -0.00333158      -0.26309257       3.97961938       0.00101872       0.00071924       0.00060854
B        0.28184868      -1.67185944       3.02381367      -0.00120960       0.00073063      -0.00120146
C       -0.58233961      -1.37540197       1.56400000      -0.07355946      -0.06930122       0.00765285
B        1.29332709       0.60812844       1.55245061      -0.00187951       0.00083417      -0.00007848
B       -0.31595867       1.39151781       1.60185332       0.00032057       0.00008646      -0.00183308
B       -1.48338114       0.03406889       1.50625480       0.00309452      -0.00269170      -0.00279005
B       -1.30868491      -0.94703128       3.02424047       0.00029835      -0.00170138      -0.00260716
C        1.14300000       0.92400000      -1.55300000       0.12617791      -0.02305937      -0.10125695
B        1.62585723       0.19271142      -2.99322578      -0.00041146       0.00126870       0.00064965
B        0.67618548      -1.30021651      -3.03845636       0.00240579       0.00126244      -0.00047649
B       -1.04473609      -0.83599861      -3.08599451      -0.00147951       0.00020097      -0.00082590
B        0.16365063       0.14839463      -3.97162174       0.00171538       0.00327301      -0.00160398
B        0.52023342       1.55082185      -3.03133869      -0.00036303       0.00061152       0.00107822
C       -0.40000000       1.32300000      -1.56800000      -0.13721734       0.28662923      -0.21821973
B        1.33043099      -0.74792478      -1.49160534      -0.00047550       0.00142037      -0.00307845
B       -0.32205825      -1.43442472      -1.57967812       0.00062981      -0.00108314      -0.00043243
B       -1.41330000      -0.01470247      -1.54981061       0.00405788       0.00386195       0.00239526
B       -1.11568356       0.93105784      -3.05647099       0.00065741       0.00408431       0.00342191
Co       0.00000000       0.00000000       0.00000000      -0.11455245      -0.15384685       0.08843398
H        1.65358011      -1.74889401       1.05037293      -0.00410509       0.00349954       0.00621689
H        2.57565455      -0.61469539       3.43002992       0.00011951       0.00108320      -0.00068384
H        1.08644602       2.10047734       3.67223656      -0.00114544       0.00053135      -0.00105423
H       -1.92164835       1.49508972       3.63633736      -0.00132230       0.00114829       0.00007380
H       -0.00381342      -0.28835985       5.16976984       0.00096850       0.00136850       0.00112242
H        0.50904408      -2.79641332       3.32985651       0.00051867       0.00168094       0.00084151
H       -0.92764251      -2.27006046       1.03894642       0.00394768       0.00556141       0.00167007
H        2.31933902       1.02555256       1.10115998       0.00148521      -0.00043951       0.00302587
H       -0.54916555       2.48871006       1.18224049       0.00013810      -0.00066496      -0.00242285
H       -2.59682130       0.01336161       1.07697979       0.00077560      -0.00120453      -0.00146282
H       -2.24955866      -1.56753211       3.41271541       0.00051138       0.00043339       0.00170331
H        1.84671893       1.57963662      -1.03272633      -0.00199822       0.00088627      -0.00367324
H        2.74743658       0.33037160      -3.37226375      -0.00088301      -0.00027558       0.00034912
H        1.09206197      -2.27664102      -3.58377506      -0.00141153       0.00030996      -0.00207619
H       -1.86726443      -1.47932422      -3.66387014      -0.00255853       0.00047065      -0.00273211
H        0.19367148       0.15059319      -5.16157999       0.00098054       0.00132447      -0.00234012
H        0.81783706       2.65534326      -3.34929833       0.00083943      -0.00040638       0.00081746
H       -0.70091990       2.25493290      -1.07934006      -0.00056742      -0.00090666      -0.00102872
H        2.30962851      -1.21954522      -0.99478678       0.00168714      -0.00050583      -0.00925348
H       -0.63114225      -2.50668263      -1.14722391      -0.00081736      -0.00153001      -0.00267542
H       -2.53731822       0.08592480      -1.15962190       0.00154540       0.00059791       0.00048692
H       -1.99811194       1.61414308      -3.47558494       0.00075606       0.00143656      -0.00119728
