45
Properties=species:S:1:pos:R:3:forces:R:3 charge=-1 spin=1 energy=-242.23184204101562 free_energy=-242.23184204101562 stress="-1.3916275243275322e-08 8.16414136295407e-09 -4.73342076645622e-09 8.16414136295407e-09 8.850851429542672e-08 1.1251351850205538e-08 -4.73342076645622e-09 1.1251351850205538e-08 4.0186257876939635e-08" pbc="F F F"
C       -0.44539903       1.40397036       1.58622518      -0.02134474       0.00424179       0.00619626
B       -1.17731937       1.01790139       3.04481866      -0.01754939       0.00639188       0.00562336
B       -1.06895820      -0.74315556       3.12056741      -0.00586753      -0.00580254       0.00431202
B        0.65725478      -1.17568429       3.12219372       0.00686558      -0.00074157      -0.00158288
B        0.10376554       0.28315553       4.00433155       0.00271955      -0.00307520       0.01002314
B        0.45148424       1.66556472       3.02376111       0.00388523       0.00550484       0.02543607
C        1.11243470       1.01519495       1.58696786       0.01918602      -0.03352875       0.00832999
B       -1.41226440       0.03149049       1.55036337      -0.00927779       0.01669019      -0.00451908
B       -0.30112950      -1.37310780       1.63600000      -0.02077993       0.15584871      -0.17944577
B        1.31993245      -0.64804673       1.55017774       0.01450545       0.01190493      -0.02341381
B        1.58088767       0.32557212       3.04368162       0.00870065       0.00886705       0.00134506
C        1.14377080       0.95682818      -1.58587326       0.02746349      -0.01722917      -0.01708114
B        1.62225412       0.24463227      -3.02812162       0.01663303       0.00830289       0.00525813
B        0.69476978      -1.25428477      -3.09233600       0.00396901      -0.00694989       0.00062700
B       -1.02936278      -0.81802555      -3.11578218      -0.00673296      -0.00256003       0.00067192
B        0.15642646       0.19398449      -4.00172350      -0.00511546      -0.00262506      -0.01008820
B        0.49979236       1.58946027      -3.03862275      -0.00199293       0.00906721      -0.01721638
C       -0.41663532       1.35485660      -1.60905770       0.00344332       0.00296617      -0.00634813
B        1.33834789      -0.70637921      -1.51563326       0.01749769       0.02697972       0.00099397
B       -0.27500000      -1.43300000      -1.61500000      -0.03882431       0.22720549       0.18614092
B       -1.38848537      -0.01779771      -1.56584121      -0.01053166       0.00147378       0.01269089
B       -1.13384825       0.94583585      -3.06628967      -0.01215567       0.00545591      -0.00970676
Co       0.00000000       0.00000000       0.00000000       0.16542986      -0.28415012       0.00408389
H       -0.75539987       2.32337823       1.08129411      -0.00751767      -0.00285154       0.00353012
H       -2.07709532       1.69393227       3.43953297       0.00697312      -0.01588136       0.00225542
H       -1.89280203      -1.38117289       3.70284210      -0.00599732      -0.00891623      -0.00309920
H        1.08771300      -2.12598473       3.70298104      -0.00659858      -0.00214605      -0.00205083
H        0.11573456       0.33573383       5.19302921      -0.00162944      -0.01332860       0.00013629
H        0.73455003       2.78064396       3.31710027      -0.00745916      -0.00109258       0.01743211
H        1.81779886       1.68013735       1.08112388      -0.00085022      -0.01041592      -0.00062161
H       -2.52552130       0.08899490       1.12016682      -0.00031307      -0.00209951       0.00602244
H       -0.57514867      -2.46774818       1.24537209      -0.00628263      -0.02012227      -0.02428301
H        2.32957717      -1.12637393       1.12989616      -0.00290649       0.01962689       0.00539342
H        2.69438472       0.49330950       3.43662302      -0.01832709      -0.00282744       0.00257225
H        1.84986623       1.62489902      -1.08416608      -0.02285823      -0.00994830      -0.00677428
H        2.74017421       0.40233972      -3.41372550      -0.02394731      -0.00730258       0.00499286
H        1.12592530      -2.21143529      -3.66097816       0.00112876      -0.00752383       0.00780407
H       -1.85117701      -1.45969543      -3.69734030       0.00140473      -0.00861154       0.00331935
H        0.18098738       0.23182206      -5.19072969      -0.00378152      -0.01685537      -0.00239557
H        0.78879817       2.69975719      -3.34516687      -0.00628657      -0.00932533      -0.02034053
H       -0.72427413       2.28497703      -1.12319716      -0.02780802       0.00330634      -0.00748969
H        2.34738846      -1.17511527      -1.08548071      -0.00087351       0.00302810       0.00665313
H       -0.55927237      -2.51671424      -1.20307898      -0.00536999      -0.01343318       0.02538764
H       -2.50475728       0.04156659      -1.14371838      -0.00209618       0.00441573      -0.00990907
H       -2.02738658       1.61815170      -3.47996285       0.00126974      -0.01193364      -0.01086475
