45
Properties=species:S:1:pos:R:3:forces:R:3 charge=-1 spin=1 energy=-242.24002075195312 free_energy=-242.24002075195312 stress="-4.159301880690691e-08 1.354528134100974e-08 -3.8619067055378764e-08 1.354528134100974e-08 -1.0415308082656338e-07 3.24288471631462e-08 -3.8619067055378764e-08 3.24288471631462e-08 -2.0360297980914766e-07" pbc="F F F"
C        0.65322257       1.27913966       1.55400000       0.07513735       0.23290887       0.28467801
B       -0.15149939       1.51167718       3.02441269       0.00016389      -0.00309268      -0.00129792
B       -1.32636082       0.19611190       3.06910699       0.00150621       0.00136711      -0.00122118
B       -0.40858201      -1.33491601       3.04464485       0.00004907       0.00035849      -0.00116686
B        0.21886070       0.06642898       3.96594583      -0.00208530       0.00009622      -0.00094117
B        1.45758883       0.81633083       3.02619805      -0.00251744      -0.00199824      -0.00248718
C        1.49162696      -0.07680506       1.56400000      -0.00932652      -0.12926954       0.12340824
B       -1.00947612       1.03321790       1.53896079      -0.00298820       0.00361735      -0.00311717
B       -1.21065901      -0.75168318       1.55864383       0.00306943       0.00103197      -0.00050858
B        0.45689123      -1.40648479       1.48499724      -0.00092153       0.00181386       0.00209053
B        1.31018516      -0.92585921       3.00718305      -0.00122175       0.00062729      -0.00245158
C        1.14300000       0.92400000      -1.55300000       0.10997327       0.04441270      -0.21391982
B        1.61316414       0.19255588      -2.99899242      -0.00283642      -0.00129957       0.00231308
B        0.67684272      -1.30111680      -3.03643754       0.00095187       0.00083023       0.00275805
B       -1.05054741      -0.85333194      -3.06123824       0.00046952      -0.00086921       0.00173829
B        0.13738915       0.13563185      -3.96358381       0.00102006      -0.00334954       0.00076869
B        0.49542498       1.54152610      -3.02817312      -0.00009601      -0.00366726       0.00194846
C       -0.40000000       1.32300000      -1.56800000      -0.21506554       0.22479683      -0.24864598
B        1.35546505      -0.73715606      -1.50032225       0.00296220      -0.00116936       0.00360805
B       -0.29979745      -1.43585342      -1.54783547       0.00109932       0.00532371       0.00076197
B       -1.40741763      -0.03409728      -1.51966899       0.00053266      -0.00019069      -0.00044937
B       -1.13770962       0.91031606      -3.03364938       0.00117729      -0.00199200       0.00127545
Co       0.00000000       0.00000000       0.00000000       0.02903789      -0.35892254       0.04929237
H        1.09938198       2.16166860       1.08404492      -0.00216414       0.00337116      -0.00058713
H       -0.30462011       2.61922328       3.43705307       0.00056767       0.00136372       0.00108144
H       -2.36827625       0.30600000       3.64080485      -0.00059238       0.00091592       0.00021220
H       -0.79317171      -2.32373282       3.59208551      -0.00257645      -0.00052367       0.00017010
H        0.23559777       0.06430903       5.15561526      -0.00071789      -0.00066952      -0.00020507
H        2.43433489       1.40780134       3.35072491       0.00202718       0.00027440       0.00099277
H        2.46011160      -0.10494277       1.05777126       0.00603236       0.00072843      -0.00186589
H       -1.73717703       1.86279166       1.07623821       0.00447084      -0.00320806      -0.00611513
H       -2.18814045      -1.31960926       1.16698828      -0.00147156      -0.00144529       0.00362720
H        0.84133622      -2.43692078       1.01880057       0.00396755      -0.00116673       0.00018838
H        2.20578680      -1.60502307       3.40312509       0.00053540      -0.00213534       0.00061215
H        1.85320072       1.60321035      -1.07115686       0.00371650      -0.00128235       0.00070254
H        2.72573276       0.34466553      -3.39790889       0.00059035      -0.00035233       0.00003628
H        1.08683363      -2.27760570      -3.58648816       0.00127604      -0.00153428       0.00198919
H       -1.87558648      -1.50638313      -3.62528498       0.00115782      -0.00339758       0.00050883
H        0.15328565       0.14130116      -5.15326874       0.00073425      -0.00263130       0.00093821
H        0.78530239       2.64496926      -3.35644766      -0.00011205       0.00102267      -0.00102431
H       -0.71097268       2.25846582      -1.09170189      -0.00063317      -0.00034925       0.00097883
H        2.33768710      -1.19875424      -1.00056483      -0.00307121       0.00087770       0.00166807
H       -0.56541091      -2.52759680      -1.13960957      -0.00188745      -0.00413548      -0.00060834
H       -2.51841645       0.04895657      -1.08517282      -0.00037599       0.00340690      -0.00040001
H       -2.02799611       1.58535382      -3.44847619      -0.00156514      -0.00049341      -0.00133464
