45
Properties=species:S:1:pos:R:3:forces:R:3 charge=-1 spin=1 energy=-242.3026580810547 free_energy=-242.3026580810547 stress="-4.887353632909708e-09 -2.3183265085435778e-08 8.136158413662997e-09 -2.3183265085435778e-08 2.245571195658158e-08 5.987425311104744e-08 8.136158413662997e-09 5.987425311104744e-08 5.298872451930947e-08" pbc="F F F"
C       -1.08496769      -1.00618812       1.59270143      -0.00979486      -0.00331367       0.00258267
B       -0.41702760      -1.50066852       3.05141669      -0.00364804      -0.00383621       0.00832453
B        1.12969305      -0.65092078       3.11367668       0.00503172       0.00095227      -0.00926146
B        0.78389327       1.09913944       3.11428796       0.00232656      -0.00116345      -0.01583762
B       -0.29312008      -0.02781628       4.00474180       0.00145420       0.00284806       0.00021233
B       -1.69744118      -0.30566945       3.03545989      -0.00260122      -0.00800202       0.01608242
C       -1.39538615       0.56896048       1.59079678      -0.00555971      -0.00585911       0.00027633
B        0.56614840      -1.28651363       1.52803156      -0.02427734      -0.02654180       0.03070886
B        1.37063979       0.31217074       1.63600000      -0.05280897      -0.00427680      -0.02247205
B        0.01358449       1.47347312       1.55275784       0.01892103      -0.01834738      -0.03880706
B       -0.96706299       1.29129261       3.04478119      -0.00186448      -0.00423332       0.00556742
C        1.14165817       0.96449961      -1.58986538      -0.00646931       0.01151925       0.00546658
B        1.62180673       0.24662613      -3.02955916       0.00158170       0.00486856      -0.00488924
B        0.69808436      -1.25462589      -3.08092447       0.00314304      -0.00285968       0.01059956
B       -1.03155155      -0.82273732      -3.11036282       0.00275968      -0.00653261       0.01512302
B        0.15790755       0.18389056      -4.00232404       0.00185689      -0.00388432      -0.00075487
B        0.49894782       1.58760762      -3.05220909       0.00421594       0.00212402      -0.01904082
C       -0.41959384       1.36099591      -1.62049994       0.00175051       0.00891966      -0.01107743
B        1.32766170      -0.69278942      -1.48035889       0.01905924       0.02849129      -0.01308820
B       -0.27500000      -1.43300000      -1.61500000      -0.11585601       0.15065059       0.06153406
B       -1.39691406      -0.00999778      -1.57749158       0.00238127      -0.01793075       0.00440305
B       -1.13844261       0.94048159      -3.07393803       0.00124609      -0.00147932      -0.01114652
Co       0.00000000       0.00000000       0.00000000       0.14619932      -0.07374421      -0.01494531
H       -1.77493670      -1.67695765       1.07328736      -0.00369245       0.00770208      -0.02203485
H       -0.63388838      -2.60391210       3.44715455       0.00439944      -0.00964525      -0.00079697
H        2.06230416      -1.12550801       3.68916808       0.00450470      -0.00231225      -0.01030425
H        1.46617215       1.88615283       3.69793321      -0.00192978       0.00108849      -0.01476780
H       -0.33530670      -0.03356052       5.19435446       0.01129926       0.00092098       0.00179549
H       -2.82416428      -0.52512095       3.33840812      -0.00583282      -0.00747370       0.00946699
H       -2.29751523       0.91938118       1.08185484      -0.00563698      -0.02200107      -0.01873355
H        0.98293426      -2.32372693       1.10374838      -0.00101668      -0.00562111      -0.00081280
H        2.48393304       0.53174435       1.25806790       0.00242465       0.00389231      -0.02314291
H        0.00817493       2.57449611       1.08373882      -0.00895497      -0.00388912       0.00240190
H       -1.59341087       2.22377984       3.44446602      -0.00158778       0.00188266      -0.00179757
H        1.83988230       1.62468061      -1.06831714      -0.01847804       0.01472183       0.02022026
H        2.74042721       0.39436162      -3.41394057       0.00901806      -0.00047436       0.01085591
H        1.13216755      -2.21609981      -3.64076860       0.01051351      -0.00380349       0.01658029
H       -1.84726190      -1.47156978      -3.69266742       0.00556010      -0.00436197       0.01124702
H        0.17799730       0.20903954      -5.19226680       0.00289993      -0.01533832      -0.00185364
H        0.78329414       2.69504715      -3.37185867       0.00479493       0.00539589      -0.01108770
H       -0.72887042       2.29249351      -1.13841866       0.01067507       0.00148504       0.01639348
H        2.33737583      -1.15121271      -1.03463454      -0.00151573       0.00637599       0.01517537
H       -0.56174248      -2.52093710      -1.21095491      -0.00380944      -0.00115960       0.01991124
H       -2.50537531       0.04929676      -1.12845294       0.00170073       0.00990108      -0.00891706
H       -2.03080726       1.60862365      -3.49697629      -0.00438315      -0.00565490      -0.00935924
