45
Properties=species:S:1:pos:R:3:forces:R:3 charge=-1 spin=1 energy=-54314.575299279866 free_energy=-54314.575299279866 stress="1.182826042175293 0.30628669261932373 -1.2435826063156128 0.30628669261932373 0.570907473564148 -0.22478178143501282 -1.2435826063156128 -0.22478178143501282 2.042543649673462" pbc="F F F"
C       -1.26641556      -0.67756154       1.55400000       0.13936393       0.11463868      -0.28961715
B       -0.73221250      -1.33548318       3.00726271       0.01453053       0.00230220      -0.00947574
B        0.97952346      -0.89576862       3.10176926      -0.00894171      -0.00948693      -0.00641979
B        1.08159811       0.87227862       3.09938021      -0.00120021      -0.00309469       0.00220574
B       -0.24297615       0.06033878       3.98378771      -0.00190003       0.00972783      -0.00600749
B       -1.69649372       0.14702552       2.96312504       0.00463107      -0.00054105      -0.00524053
C       -1.18101461       0.91436016       1.56400000       0.22222637      -0.33189952      -0.31955221
B        0.28102404      -1.39706587       1.53498958       0.02586577       0.00398642       0.00972993
B        1.43163110      -0.03914815       1.59533235      -0.01861583       0.00299181      -0.01418033
B        0.42726159       1.42957081       1.54057936      -0.00070157      -0.00798533       0.00256070
B       -0.56173499       1.51087483       3.01672028       0.00051966       0.00813552      -0.00194851
C        1.14300000       0.92400000      -1.55300000      -0.42052090      -0.30293518       0.40021306
B        1.60349286       0.15587112      -2.96977856      -0.00614176      -0.01506798       0.01309038
B        0.63063952      -1.31991960      -3.03543249       0.01755533       0.00241598       0.01405075
B       -1.07570114      -0.84890685      -3.08465196       0.01031821      -0.00444918      -0.00337298
B        0.13747724       0.12154863      -3.96725552      -0.00277967       0.00065084       0.00567161
B        0.51018553       1.54853700      -2.97527243       0.00346957      -0.00501479       0.00393909
C       -0.40000000       1.32300000      -1.56800000       0.09247660       0.14778526       0.03348700
B        1.29693290      -0.77286078      -1.46422975      -0.00957671      -0.02976730      -0.00928719
B       -0.35693386      -1.43378959      -1.54659915       0.00144181       0.02058092       0.02397848
B       -1.43119007      -0.01582891      -1.55815864       0.01002459      -0.00671786      -0.00521735
B       -1.14377416       0.91527799      -3.03786945      -0.00396801       0.00263038      -0.00348110
Co       0.00000000       0.00000000       0.00000000      -0.04633130       0.34246114       0.16244270
H       -2.11170487      -1.11423297       1.04727394       0.00936789       0.00005568       0.00914468
H       -1.24262968      -2.32770734       3.40256923       0.01343010       0.01357763      -0.00590603
H        1.74855355      -1.59522606       3.67057662       0.00329671       0.01372516      -0.00652566
H        1.93377616       1.47148284       3.66520666      -0.00264605       0.01021743      -0.00642290
H       -0.33660494       0.06323867       5.16635077       0.00539981       0.00698098      -0.00810661
H       -2.83482309       0.21314400       3.27590453       0.00525429       0.00143037      -0.00309934
H       -1.96863671       1.44612546       1.05316713      -0.00643017      -0.00491652       0.00798971
H        0.43345852      -2.49621285       1.12013212       0.00337463       0.00903144       0.00379278
H        2.56361035      -0.09366078       1.23887606      -0.00192067       0.00795203       0.00143357
H        0.70412737       2.48465583       1.06020790      -0.01353957      -0.01484211       0.00106484
H       -0.95103679       2.55597026       3.41440698      -0.00520185       0.01185181      -0.00434809
H        1.81229029       1.59194168      -1.03649156      -0.00538609      -0.01044126      -0.00788547
H        2.71318815       0.30114373      -3.35600448      -0.01768061      -0.00892411       0.01312656
H        1.05400295      -2.28956480      -3.56892294      -0.00944798       0.00093655       0.01056289
H       -1.90637745      -1.47451488      -3.65379899      -0.00428439       0.00467777       0.00332915
H        0.18248490       0.18262935      -5.15106959      -0.00149576      -0.00510772       0.00803272
H        0.80280872       2.64480787      -3.30778158       0.00020965      -0.00334591       0.00133795
H       -0.66109561       2.26065869      -1.10125690       0.00749957       0.00671823      -0.00968595
H        2.27239233      -1.26866308      -1.01081348      -0.00490728      -0.00160573       0.00312968
H       -0.67170585      -2.51400376      -1.16569464      -0.00548735       0.00417227      -0.00125805
H       -2.52851205       0.08504856      -1.10448532       0.01745638       0.00712658      -0.00473640
H       -1.99552708       1.62066257      -3.46070203      -0.00860725       0.00938230      -0.00253886
