45
Properties=species:S:1:pos:R:3:forces:R:3 charge=-1 spin=1 energy=-54314.4543676545 free_energy=-54314.4543676545 stress="0.8090502619743347 0.2711907625198364 -0.2478816956281662 0.2711907625198364 1.0342614650726318 -1.1579395532608032 -0.2478816956281662 -1.1579395532608032 1.1048036813735962" pbc="F F F"
C        1.25066352      -0.70621439       1.55400000      -0.27093256       0.09167193       0.04828652
B        1.52481236       0.09455211       3.02243604       0.00478387       0.00494723      -0.00365338
B        0.24136660       1.31106604       3.11738394      -0.00610356      -0.00083545       0.00398990
B       -1.30881154       0.45560028       3.09945383      -0.00270487      -0.00212256      -0.00999037
B        0.07898842      -0.23560608       3.98949974       0.00875954      -0.00033898       0.00169206
B        0.78452468      -1.50710620       2.96652331       0.00707657      -0.00166246      -0.00417043
C       -0.13920054      -1.48710229       1.56400000       0.14251748       0.52918822      -0.40366083
B        1.03699131       0.97813933       1.56721027      -0.01501425       0.01897936       0.00452201
B       -0.72541463       1.23846621       1.60724869       0.00013728      -0.00042737      -0.01406037
B       -1.43951513      -0.39751861       1.53234888       0.00455815       0.00427722      -0.04253358
B       -0.97065938      -1.27416292       3.01346233      -0.00010780       0.00518656       0.00065744
C        1.14300000       0.92400000      -1.55300000      -0.41434431      -0.29006952       0.20101942
B        1.61821203       0.16504399      -2.98486935       0.00704472       0.00354508      -0.00009803
B        0.65608298      -1.31841933      -3.05816163      -0.00553016       0.00611779      -0.01384623
B       -1.05285520      -0.85526369      -3.09800741      -0.00305924       0.00794158       0.00327947
B        0.15320568       0.12347633      -3.97873537       0.00788975       0.01044536      -0.00675299
B        0.51747338       1.54754686      -2.97869739       0.00447530       0.00865984       0.00441479
C       -0.40000000       1.32300000      -1.56800000       0.10322510      -0.00340495       0.21467474
B        1.31119272      -0.76099295      -1.50448348      -0.01236159      -0.02388854      -0.01206540
B       -0.33697802      -1.43666494      -1.57329952      -0.00458250      -0.00144185       0.00356110
B       -1.42886642      -0.02515911      -1.56409690       0.00398856      -0.00015049       0.03828758
B       -1.12933864       0.90793605      -3.04401407       0.00238685      -0.00232389      -0.00438769
Co       0.00000000       0.00000000       0.00000000       0.35473245      -0.39964378       0.04004766
H        2.07651990      -1.19014216       1.06374565       0.00269701       0.00007111       0.01698970
H        2.63564199       0.18796482       3.41915934       0.00763121      -0.00587597       0.00244522
H        0.41884362       2.33530343       3.68667979       0.00659019      -0.00114985       0.00027003
H       -2.27522790       0.84720463       3.66288283       0.00182396       0.00155040       0.00084491
H        0.11869990      -0.32248834       5.17138236       0.00076996       0.00090429       0.00546638
H        1.33429139      -2.50603350       3.27508616       0.00456111      -0.00501044       0.00449116
H       -0.17639062      -2.43228871       1.05053951       0.00222333      -0.00139446      -0.00614080
H        1.88851839       1.68654640       1.13216781       0.00478949       0.01247268       0.01958979
H       -1.27683224       2.23101236       1.24642306       0.00350464      -0.00818306      -0.00641457
H       -2.49073253      -0.73045544       1.10583379       0.00445007      -0.01725312      -0.03689284
H       -1.65260274      -2.15858281       3.40370032       0.00147725      -0.00047315       0.00243653
H        1.81456028       1.59608000      -1.04886813       0.00178642       0.00264463      -0.01132711
H        2.72806626       0.32147913      -3.36336055       0.00942574       0.01396790      -0.00556221
H        1.08307600      -2.28945024      -3.58675983       0.00887037       0.00875890      -0.00726922
H       -1.88548751      -1.47803260      -3.66691573       0.00625518       0.00265820      -0.00767044
H        0.19508371       0.19086746      -5.16154486       0.00330683       0.00816727      -0.01028668
H        0.80565104       2.64539688      -3.30482758       0.00421515       0.01105907      -0.00057682
H       -0.67207783       2.25474178      -1.10025105      -0.00068959       0.00214991       0.00459641
H        2.28954019      -1.24368483      -1.03076448       0.01205287      -0.01553159      -0.03937975
H       -0.63986447      -2.52359322      -1.19195949      -0.00468138       0.00608105      -0.00284382
H       -2.53777689       0.06747752      -1.16573969      -0.00135290       0.01616616       0.03114299
H       -1.98627615       1.60604880      -3.46541323       0.00345842       0.00356978      -0.00312256
