45
Properties=species:S:1:pos:R:3:forces:R:3 charge=-1 spin=1 energy=-54314.566649453816 free_energy=-54314.566649453816 stress="0.7435656189918518 0.5950701236724854 -0.9926106929779053 0.5950701236724854 0.9902695417404175 -1.433510184288025 -0.9926106929779053 -1.433510184288025 2.1327595710754395" pbc="F F F"
C        0.41867608      -1.37390259       1.55400000      -0.05501478       0.31603286      -0.17659529
B        1.16418762      -0.97003641       3.01921249      -0.00093322      -0.00137958      -0.00008694
B        1.06544072       0.79651571       3.11105457       0.00076083      -0.00213680       0.00051709
B       -0.64818362       1.24345394       3.09246709       0.00156253       0.00143515      -0.00152919
B       -0.11641662      -0.21300257       3.98375668      -0.00140331       0.00023366       0.00027756
B       -0.47576652      -1.62613604       2.96395613      -0.00039286      -0.00078876       0.00013066
C       -1.12633991      -0.98092222       1.56400000       0.29161742       0.31113273      -0.53583890
B        1.42179784       0.00388312       1.55772065       0.00800753      -0.00043612      -0.00275493
B        0.31850494       1.39753821       1.59956702       0.00289267      -0.00065791       0.00003910
B       -1.32108508       0.70703382       1.52971421       0.00652409      -0.00101466       0.00173685
B       -1.59342236      -0.24619146       3.00567518      -0.00058706       0.00178316      -0.00056662
C        1.14300000       0.92400000      -1.55300000      -0.36608389      -0.32221040       0.47465065
B        1.61535971       0.16247218      -2.97685625      -0.00020064       0.00111229       0.00022116
B        0.65048932      -1.31865117      -3.05501805       0.00131676       0.00091688      -0.00065638
B       -1.05819388      -0.85520977      -3.10106496       0.00039114      -0.00239495       0.00168447
B        0.15086086       0.12609216      -3.97561227      -0.00098524       0.00111828      -0.00012303
B        0.51457799       1.54950143      -2.97363517      -0.00006807       0.00124192      -0.00021898
C       -0.40000000       1.32300000      -1.56800000      -0.03410561       0.02213262       0.18712930
B        1.30551699      -0.76777319      -1.48947234       0.00707292      -0.00300928       0.00309331
B       -0.34015498      -1.43354468      -1.57115645       0.00283189      -0.00140250       0.00063303
B       -1.42878836      -0.02806433      -1.56993300       0.00669778      -0.00196017      -0.00186781
B       -1.13545971       0.90981798      -3.04196849      -0.00177786      -0.00150774       0.00042962
Co       0.00000000       0.00000000       0.00000000       0.12731995      -0.31772083       0.05168974
H        0.68498502      -2.28897016       1.05143690       0.00095395       0.00057206      -0.00042909
H        2.03374823      -1.66267784       3.42428256       0.00000509      -0.00014328      -0.00006978
H        1.89969822       1.41662470       3.68034055       0.00046720      -0.00057887      -0.00094959
H       -1.07952378       2.19481985       3.65322351       0.00091829      -0.00057093       0.00025075
H       -0.14776787      -0.30099750       5.16603701       0.00132929      -0.00029960       0.00068450
H       -0.76409580      -2.72725697       3.28042628      -0.00065606      -0.00106558       0.00102446
H       -1.80018161      -1.64002677       1.04142295      -0.00044071      -0.00025816       0.00075708
H        2.52785477      -0.05128836       1.13081565      -0.00070876      -0.00321946      -0.00628434
H        0.60172515       2.49173998       1.21747367       0.00120756       0.00104448       0.00010680
H       -2.29562806       1.18859070       1.05609503      -0.00151734       0.00282449       0.00535976
H       -2.69619021      -0.42325290       3.39716127       0.00017735      -0.00021346       0.00162929
H        1.81059031       1.59196576      -1.03473846       0.00081363      -0.00082318      -0.00005064
H        2.72442044       0.31958815      -3.35803675      -0.00018694       0.00012105       0.00023419
H        1.08109653      -2.28571001      -3.58787076       0.00087282      -0.00023969       0.00078593
H       -1.88890748      -1.47713387      -3.67432009       0.00088986      -0.00020829      -0.00047937
H        0.19693135       0.19622647      -5.15856912       0.00122046      -0.00063212      -0.00054290
H        0.80572711       2.64662287      -3.30089793       0.00004256       0.00181677      -0.00144969
H       -0.66991557       2.25185286      -1.09151729      -0.00010852       0.00076351      -0.00137461
H        2.27376882      -1.26542554      -1.01683500       0.00009156       0.00335367       0.00587237
H       -0.64395489      -2.51507767      -1.16937228       0.00100593      -0.00097881       0.00018185
H       -2.52739713       0.05404781      -1.13232112      -0.00190750      -0.00197811      -0.00545438
H       -1.98851125       1.61195853      -3.46603275       0.00008701       0.00019373      -0.00179731
