45
Properties=species:S:1:pos:R:3:forces:R:3 charge=-1 spin=1 energy=-54314.53814603585 free_energy=-54314.53814603585 stress="0.9872457981109619 0.00946823600679636 0.1745149791240692 0.00946823600679636 1.139952301979065 -1.4643807411193848 0.1745149791240692 -1.4643807411193848 1.7903002500534058" pbc="F F F"
C        1.43069912      -0.12648327       1.55400000      -0.27380165       0.01212432       0.00787532
B        1.33858905       0.72441793       3.01620441       0.00057848       0.00017430      -0.00102451
B       -0.33271229       1.30901176       3.09131387       0.00041520       0.00168541      -0.00211776
B       -1.40034830      -0.10651300       3.06093505       0.00141717       0.00133247      -0.00003838
B        0.14037752      -0.16630584       3.97125705       0.00181148       0.00056951      -0.00012774
B        1.31923705      -1.04174004       2.96885188      -0.00019796       0.00056204       0.00028528
C        0.48756088      -1.41178411       1.56400000      -0.17578830       0.59816122      -0.57580137
B        0.54352412       1.32577565       1.55124091       0.00210509       0.00265101      -0.00158959
B       -1.17220062       0.84591954       1.57233018       0.00614246      -0.00031703       0.00272938
B       -1.15395386      -0.94169120       1.49471833       0.00090995      -0.00146064       0.00089680
B       -0.38288603      -1.54689381       2.99287650      -0.00039648       0.00031459      -0.00150795
C        1.14300000       0.92400000      -1.55300000      -0.40389839      -0.28068271       0.20867682
B        1.61734566       0.17146005      -2.98667803       0.00050148      -0.00034883       0.00065727
B        0.65692826      -1.31452818      -3.05936372       0.00105882      -0.00142646       0.00198388
B       -1.05594782      -0.85943357      -3.08436160       0.00143252      -0.00022163       0.00039531
B        0.14423564       0.12760926      -3.97272956       0.00137927       0.00023338      -0.00005695
B        0.51096497       1.55096693      -2.97493353      -0.00041043      -0.00070413      -0.00056743
C       -0.40000000       1.32300000      -1.56800000       0.06312128      -0.02086898       0.38718468
B        1.31348009      -0.76192446      -1.50696051       0.00382037      -0.00101528       0.00244740
B       -0.32905066      -1.44348814      -1.56494753       0.00470813       0.00485183      -0.00293710
B       -1.42587281      -0.03653807      -1.54019571      -0.00090362       0.00193031      -0.00076633
B       -1.13816621       0.90244053      -3.02858139      -0.00012986      -0.00094474       0.00152419
Co       0.00000000       0.00000000       0.00000000       0.77806419      -0.31241128      -0.02780300
H        2.38728248      -0.23369088       1.06895825      -0.00698970      -0.00333927       0.00025790
H        2.31143311       1.26200066       3.42405379       0.00102112       0.00008409       0.00210360
H       -0.59509180       2.31706617       3.65689697       0.00044936      -0.00008206      -0.00061856
H       -2.44664541      -0.14273868       3.61647045       0.00077137       0.00043369       0.00020196
H        0.19643606      -0.22571669       5.15431807       0.00029616       0.00126093       0.00078742
H        2.22506668      -1.72631861       3.29686211      -0.00003426      -0.00121786       0.00202647
H        0.84328195      -2.28663142       1.04549600       0.00034933       0.00020167       0.00035789
H        1.02942075       2.31712818       1.10089334       0.00236943      -0.00412567      -0.00504993
H       -2.06979810       1.52679965       1.19065061      -0.00328706       0.00389759       0.00053270
H       -1.96503967      -1.67441106       1.03949746      -0.00335881       0.00341784       0.00195744
H       -0.64862673      -2.63040135       3.38728102       0.00049972       0.00162103       0.00252533
H        1.81168880       1.60190852      -1.04839061      -0.00564467      -0.00108009      -0.00156454
H        2.72452111       0.33792866      -3.37170363       0.00071838       0.00018345      -0.00260519
H        1.08571920      -2.28038952      -3.59620467       0.00007004       0.00016001       0.00054969
H       -1.88629973      -1.48217047      -3.65639576       0.00053885       0.00004417      -0.00016798
H        0.17851579       0.19842440      -5.15595941       0.00082674      -0.00122871      -0.00092502
H        0.79304211       2.65096826      -3.30189090      -0.00078781       0.00039650      -0.00228481
H       -0.67167605       2.25094308      -1.09079127       0.00086861       0.00069080      -0.00112525
H        2.28827469      -1.24785251      -1.02273226      -0.00245504       0.00607455       0.00638135
H       -0.61925879      -2.52793736      -1.17243367       0.00056305      -0.00592672       0.00017608
H       -2.52724681       0.05401950      -1.11546744       0.00002534      -0.00424683      -0.00085216
H       -1.99834217       1.59931891      -3.44616405       0.00125052      -0.00140794      -0.00298227
