45
Properties=species:S:1:pos:R:3:forces:R:3 charge=-1 spin=1 energy=-54314.36420728463 free_energy=-54314.36420728463 stress="1.4561409950256348 -0.0062290276400744915 0.2819505035877228 -0.0062290276400744915 0.627625048160553 -0.46015793085098267 0.2819505035877228 -0.46015793085098267 1.0832642316818237" pbc="F F F"
C        0.99505474       1.03574324       1.55400000      -0.07668286      -0.18257506       0.05878558
B        0.29341913       1.50797893       3.02057467      -0.00640654      -0.00049126      -0.01517498
B       -1.20837625       0.57471506       3.10619587       0.00434375      -0.00115111      -0.00832739
B       -0.77399820      -1.14061776       3.08455603       0.00306038      -0.00108524      -0.02607597
B        0.24404249       0.02305048       3.98392412      -0.00306985       0.00104353      -0.00594587
B        1.65550640       0.38298588       2.96788959      -0.00328913       0.00272566       0.00250324
C        1.40576447      -0.50465460       1.56400000      -0.49992397       0.35924235      -0.29372549
B       -0.69020274       1.26330869       1.55926204       0.02563590      -0.00236130       0.01462549
B       -1.38614887      -0.37704875       1.58274637      -0.00915583      -0.02086332       0.02121854
B        0.01869789      -1.48045590       1.51188266       0.00111079      -0.01957604       0.01427697
B        0.98232019      -1.25521887       3.00775246      -0.00239946       0.00320975      -0.00382028
C        1.14300000       0.92400000      -1.55300000      -0.44151014      -0.23465744       0.05050877
B        1.62288897       0.18097244      -2.99044039      -0.00288324      -0.00682438       0.01617269
B        0.66612724      -1.30610130      -3.06098072      -0.00515664       0.00597522       0.00606811
B       -1.04403519      -0.85186831      -3.09040334      -0.00261488       0.00239749       0.02466138
B        0.15380779       0.13541566      -3.97821453      -0.00314073       0.00256427       0.00577708
B        0.51364673       1.55717494      -2.97779138       0.00162156      -0.00118454       0.00039610
C       -0.40000000       1.32300000      -1.56800000       0.18456428       0.02934427       0.17162013
B        1.32276773      -0.76132026      -1.50950691      -0.00752822       0.02534854      -0.02397508
B       -0.32387371      -1.44188995      -1.55970264      -0.01790866      -0.01205482      -0.02829967
B       -1.41707338      -0.03327291      -1.54025152      -0.02581530       0.00382298      -0.02062804
B       -1.13115733       0.90611909      -3.03565798      -0.00058494       0.00002699       0.00488366
Co       0.00000000       0.00000000       0.00000000       0.88473278      -0.01950607       0.04553222
H        1.68417796       1.71908752       1.08351260      -0.00346784       0.00665373       0.01928028
H        0.48963232       2.60648873       3.41796218       0.00249351      -0.00717292      -0.00721907
H       -2.15542894       1.00164848       3.67689161       0.00447598      -0.00274547      -0.01069262
H       -1.40047000      -1.97723369       3.64426016       0.00618193       0.01640520      -0.01519671
H        0.33408076       0.03385188       5.16642874      -0.00330560       0.00538802      -0.00366784
H        2.76160089       0.66253932       3.27872505       0.00296172       0.00248462      -0.00099909
H        2.31540028      -0.78124762       1.05884521      -0.02202492       0.01103053       0.02086858
H       -1.14986111       2.26800649       1.11940949      -0.02142197       0.01490880      -0.00380475
H       -2.49008159      -0.65829361       1.25324642       0.01229763      -0.01184769      -0.01746285
H        0.07193950      -2.58337993       1.08856541       0.03390805       0.01022472      -0.01069705
H        1.66230420      -2.14271370       3.39512674       0.00007551       0.00105751       0.00705652
H        1.81873076       1.61019667      -1.06916400       0.00939131      -0.00427520      -0.01856294
H        2.73315823       0.34841321      -3.36858330      -0.01491086       0.00578263       0.00256622
H        1.09497631      -2.27337185      -3.59552980      -0.00784115       0.01217713       0.00199264
H       -1.87305109      -1.47844659      -3.66073266       0.00991791       0.01129164       0.01197777
H        0.18925673       0.20482636      -5.16155994      -0.00136134       0.00511364       0.00328330
H        0.79745840       2.65918840      -3.29852690      -0.00167438       0.00699367       0.00527364
H       -0.67567207       2.25605770      -1.10343921       0.00674692      -0.02222767      -0.01335043
H        2.30754078      -1.23438745      -1.04198229       0.00887674      -0.03541567      -0.00662053
H       -0.61774333      -2.53706557      -1.21569654      -0.02159577       0.01160565       0.01349346
H       -2.52733948       0.05108567      -1.14019091       0.00682473       0.02602504       0.01084026
H       -1.99384583       1.60079078      -3.45145196      -0.00354716       0.00317158       0.00058399
