45
Properties=species:S:1:pos:R:3:forces:R:3 charge=-1 spin=1 energy=-54314.4738989045 free_energy=-54314.4738989045 stress="0.9025298357009888 0.22465260326862335 -0.18407146632671356 0.22465260326862335 0.8879430890083313 -1.2934856414794922 -0.18407146632671356 -1.2934856414794922 1.664757251739502" pbc="F F F"
C        1.30115758      -0.60818331       1.55400000      -0.28939989       0.13532840       0.06147796
B        1.50654482       0.21342585       3.02246495      -0.00172625       0.00239209      -0.00178070
B        0.12946754       1.32507185       3.11252448      -0.00194282       0.00057180      -0.00266674
B       -1.34968252       0.35128440       3.08659476      -0.00348269       0.00037642      -0.00151798
B        0.08675249      -0.22800901       3.98468980      -0.00224831       0.00121576      -0.00148664
B        0.89437373      -1.44104108       2.96667666       0.00062223       0.00097924      -0.00074482
C       -0.02470124      -1.49339876       1.56400000       0.14669695       0.48525676      -0.51449436
B        0.95443097       1.05777669       1.56680928      -0.00425135      -0.00239154       0.00015576
B       -0.82333288       1.17770278       1.59698816      -0.00190496       0.00211931      -0.00326496
B       -1.40614653      -0.51069175       1.51635369       0.00213913       0.00280055      -0.00486773
B       -0.87594245      -1.34507191       3.00601783      -0.00242822      -0.00157750      -0.00111889
C        1.14300000       0.92400000      -1.55300000      -0.39266434      -0.28556314       0.18141553
B        1.61896643       0.18339120      -2.99255216      -0.00139033      -0.00304810       0.00143797
B        0.65323692      -1.29769887      -3.08229105      -0.00241993      -0.00046726       0.00242548
B       -1.05488893      -0.83408379      -3.11359053      -0.00350885      -0.00096662       0.00110265
B        0.15344241       0.15462403      -3.98744051      -0.00207419      -0.00111160       0.00137557
B        0.51912591       1.56622952      -2.97250981       0.00036719      -0.00062956       0.00095044
C       -0.40000000       1.32300000      -1.56800000       0.13603619       0.10934085       0.31009683
B        1.30826330      -0.76171535      -1.52244024      -0.00530361       0.00094059      -0.00167743
B       -0.33907612      -1.43080351      -1.59250364      -0.00172892      -0.00267175       0.00324569
B       -1.42871994      -0.02006107      -1.56627315       0.00250920      -0.00141435       0.00494770
B       -1.12965360       0.92645270      -3.04383547      -0.00334460       0.00118965       0.00040744
Co       0.00000000       0.00000000       0.00000000       0.45822397      -0.44207916      -0.03329657
H        2.16443255      -1.02756532       1.06835222       0.00146323      -0.00160293      -0.00343012
H        2.60565355       0.39227560       3.42399397      -0.00342698       0.00080929      -0.00096087
H        0.22657970       2.35991025       3.68212643      -0.00309347       0.00033745      -0.00151666
H       -2.34394249       0.66736116       3.64877572      -0.00441381       0.00056258      -0.00216454
H        0.12860196      -0.30999942       5.16710348      -0.00338623       0.00097130      -0.00134968
H        1.51852828      -2.39447420       3.27918297      -0.00119007       0.00149835       0.00073406
H        0.01335616      -2.43719340       1.04724323       0.00047065      -0.00685967      -0.00485394
H        1.74863296       1.83500466       1.14017063      -0.00143761       0.00385571      -0.00559848
H       -1.44844398       2.12282168       1.23018584       0.00208085      -0.00280235      -0.00569514
H       -2.41976082      -0.93195285       1.07469938       0.00300606       0.00085563      -0.00851912
H       -1.48636174      -2.28039097       3.39598997      -0.00218676      -0.00136359      -0.00153463
H        1.81432952       1.59414190      -1.04587232       0.00248960       0.00295628       0.00409322
H        2.72911474       0.34699346      -3.36948068      -0.00332775      -0.00193833       0.00089282
H        1.08236893      -2.26097205      -3.62331119      -0.00343790      -0.00077120       0.00077031
H       -1.88488378      -1.45045767      -3.69283532      -0.00461917      -0.00094328       0.00142590
H        0.19579479       0.23554748      -5.16987073      -0.00329928      -0.00109659       0.00117839
H        0.80742412       2.66907275      -3.28328741      -0.00085714      -0.00183886      -0.00026884
H       -0.67059109       2.25051855      -1.09057216      -0.00141604       0.00603241       0.00407824
H        2.28836017      -1.25551848      -1.06305346      -0.00062080      -0.00560460       0.00524053
H       -0.64366307      -2.51988632      -1.21923560       0.00015406       0.00424806       0.00541346
H       -2.53442016       0.07718116      -1.15754968       0.00292497       0.00050692       0.00829748
H       -1.98436010       1.63179863      -3.45759831      -0.00265163       0.00159685       0.00164539
