45
Properties=species:S:1:pos:R:3:forces:R:3 charge=-1 spin=1 energy=-242.3112030029297 free_energy=-242.3112030029297 stress="-5.349280129962608e-08 1.0606449052374955e-08 1.4881391230403551e-08 1.0606449052374955e-08 -1.0161305397105025e-07 1.1207790606704293e-07 1.4881391230403551e-08 1.1207790606704293e-07 -1.4731182318428182e-07" pbc="F F F"
C       -0.37300000      -1.38700000       1.55400000      -0.02230594      -0.22866952       0.21725352
B        0.44154494      -1.45507715       3.04108512       0.00129359      -0.00028373       0.00249229
B        1.30825059       0.08701215       3.10029114      -0.00119573       0.00352292       0.00323209
B        0.08766654       1.38645962       3.07629659      -0.00141197      -0.00201380      -0.00019041
B       -0.23579648      -0.13379726       3.98254600       0.00060035       0.00312123      -0.00072517
B       -1.27392190      -1.12371411       3.02270616      -0.00196954       0.00118742       0.00203585
C       -1.47500000      -0.23500000       1.56400000      -0.06084779       0.05973834       0.01897177
B        1.18794825      -0.77677266       1.54439735      -0.00371581      -0.00113532       0.00228618
B        1.01029335       1.00600696       1.60991694      -0.00212225       0.00280806      -0.00095387
B       -0.75581405       1.28480473       1.52095965       0.00020048       0.00059648       0.00163640
B       -1.50278844       0.61380783       3.01645161       0.00265910       0.00270617       0.00326105
C        1.14300000       0.92400000      -1.55300000       0.13276477       0.04404378      -0.07508321
B        1.61958937       0.19621654      -3.00073741       0.00134937      -0.00183029      -0.00230619
B        0.67101355      -1.29578035      -3.04052892      -0.00213887      -0.00024800      -0.00318262
B       -1.05216026      -0.83822876      -3.08227230       0.00089623       0.00241789      -0.00054333
B        0.15677209       0.14899326      -3.97181024      -0.00182477      -0.00189335       0.00046326
B        0.51727754       1.55011356      -3.03210076      -0.00213779       0.00250010      -0.00005177
C       -0.40000000       1.32300000      -1.56800000      -0.15804450       0.22435790      -0.26368570
B        1.32574657      -0.73779637      -1.47511169      -0.00081620       0.00276136      -0.00377543
B       -0.32348771      -1.43496115      -1.57767105      -0.00319335       0.00092641       0.00023390
B       -1.41904386      -0.02243473      -1.55782079      -0.00066242      -0.00009038      -0.00174700
B       -1.12309902       0.92950699      -3.04781618      -0.00110328      -0.00230145      -0.00244830
Co       0.00000000       0.00000000       0.00000000       0.12354742      -0.12211241       0.09874140
H       -0.60534821      -2.32702092       1.04589894       0.00102545       0.00244270       0.00207981
H        0.83534628      -2.50637051       3.44156302      -0.00025772      -0.00315700       0.00000669
H        2.34616320       0.19133186       3.68053943       0.00138007      -0.00316065      -0.00051828
H        0.24339943       2.42607805       3.64130933       0.00185774      -0.00448413      -0.00169412
H       -0.26378999      -0.14297217       5.17268493      -0.00004775       0.00050806      -0.00221659
H       -2.10813626      -1.91226640       3.32573606      -0.00180045      -0.00089805       0.00140215
H       -2.41742444      -0.41726071       1.04097985      -0.00204900       0.00403041      -0.00495385
H        2.09476914      -1.45081070       1.15912456       0.00152951      -0.00167168      -0.00064164
H        1.83890708       1.76374866       1.19435167      -0.00065842       0.00095457       0.00072238
H       -1.34299334       2.20890497       1.04072239      -0.00361792       0.00207051       0.00211305
H       -2.53030448       1.07836768       3.40288837       0.00075087       0.00078295       0.00009179
H        1.84478505       1.58092490      -1.03198829      -0.00110687       0.00003644       0.00058185
H        2.74156134       0.32861604      -3.38026433       0.00291839       0.00203475      -0.00015914
H        1.08805993      -2.27360848      -3.58308135       0.00334225       0.00086394      -0.00032095
H       -1.87372411      -1.48119404      -3.66176944       0.00419988       0.00079772       0.00089843
H        0.18067862       0.15229846      -5.16208651      -0.00027354       0.00137347       0.00171040
H        0.81490084       2.65434754      -3.35051276       0.00011901       0.00287241      -0.00113072
H       -0.70076693       2.25869004      -1.08826927      -0.00439632       0.00198039       0.00800303
H        2.32993944      -1.20723118      -1.03423557       0.00174823      -0.00009189       0.00014554
H       -0.60602189      -2.51577544      -1.14830386      -0.00045945       0.00124004       0.00004493
H       -2.52940003       0.06637722      -1.12221662      -0.00327578       0.00196223      -0.00183859
H       -2.00319932       1.61583893      -3.46625694      -0.00074917      -0.00059693      -0.00024085
