45
Properties=species:S:1:pos:R:3:forces:R:3 charge=-1 spin=1 energy=-242.28933715820312 free_energy=-242.28933715820312 stress="-4.855590418628708e-08 1.0021286023231823e-08 -5.1805965739504245e-08 1.0021286023231823e-08 -9.457740191010089e-08 5.499749633486317e-08 -5.1805965739504245e-08 5.499749633486317e-08 -2.2071731109463144e-07" pbc="F F F"
C        1.17728099       0.82274386       1.55400000       0.10038862       0.15670343       0.30615631
B        0.57992718       1.40436961       3.02654230       0.00167965       0.00253076      -0.00247929
B       -1.07367419       0.78620142       3.08087145       0.00091839       0.00015272      -0.00399612
B       -0.97355156      -0.99453215       3.05741437      -0.00046027      -0.00210497      -0.00216384
B        0.23876036      -0.04674950       3.97282049      -0.00098843       0.00015795      -0.00218857
B        1.67935697       0.03833310       3.02625995       0.00618132       0.00019671      -0.00087115
C        1.28097064      -0.76809128       1.56400000       0.00193942      -0.08273685       0.10809693
B       -0.41448856       1.37476591       1.54679443       0.00497940      -0.00386262       0.00001214
B       -1.42190010      -0.10654187       1.57635186      -0.00337780       0.00071402      -0.00320207
B       -0.24807818      -1.45442714       1.48029811       0.00124375      -0.00769326      -0.00448602
B        0.73634651      -1.43240192       3.01531647       0.00122318      -0.00312896      -0.00090556
C        1.14300000       0.92400000      -1.55300000       0.08071768      -0.02182496      -0.21740796
B        1.61587398       0.19654122      -2.99974093       0.00082340       0.00210325       0.00190011
B        0.67224453      -1.29422448      -3.04870561      -0.00079928       0.00244164       0.00278410
B       -1.05231575      -0.83697353      -3.07694189      -0.00217237      -0.00063629       0.00170630
B        0.14346371       0.14962099      -3.97111815      -0.00060126      -0.00014625       0.00130876
B        0.50284521       1.54975442      -3.02846269       0.00206133       0.00703310       0.00060560
C       -0.40000000       1.32300000      -1.56800000      -0.15876181       0.30192035      -0.24855252
B        1.34232980      -0.74231255      -1.50767616      -0.00574052       0.00621512      -0.00387882
B       -0.30822912      -1.43474819      -1.56942459       0.00086857      -0.00423619       0.00183676
B       -1.40376427      -0.02475572      -1.51935949      -0.00745332       0.00107498       0.00473630
B       -1.13116640       0.92419817      -3.04386868      -0.00461710       0.00258131       0.00067390
Co       0.00000000       0.00000000       0.00000000      -0.03202781      -0.37890166       0.06375476
H        1.98066218       1.39335527       1.07919526       0.00488460       0.00266480       0.00122169
H        0.96232421       2.45677858       3.43463103      -0.00112858      -0.00074947       0.00062144
H       -1.93900036       1.37040958       3.65826810      -0.00493337       0.00266308       0.00105493
H       -1.77059725      -1.69340715       3.60619159      -0.00273788      -0.00018923       0.00122929
H        0.25792483      -0.05401337       5.16231135      -0.00069766       0.00047089       0.00653720
H        2.82174119       0.10429190       3.34318269      -0.00615954       0.00002040       0.00020581
H        2.12340703      -1.24121283       1.05549426       0.00789824      -0.00410743      -0.00162031
H       -0.68546949       2.45047891       1.09784653       0.00180249       0.00472209       0.00124156
H       -2.54926170      -0.17348721       1.18370574       0.00543385       0.00187017      -0.00122957
H       -0.38648542      -2.55674836       1.04272979       0.00167446       0.00751421       0.00281446
H        1.21102200      -2.45420197       3.40416312      -0.00152948       0.00298087       0.00100037
H        1.85195592       1.59752378      -1.06358146       0.00453751       0.00490113      -0.00074139
H        2.73202482       0.34414200      -3.38993924      -0.00303894       0.00077534      -0.00226218
H        1.08292084      -2.26878308      -3.60059305      -0.00032572      -0.00325620      -0.00364280
H       -1.88008784      -1.48338467      -3.64404048      -0.00209390      -0.00145748      -0.00109374
H        0.16680342       0.15733075      -5.16053157      -0.00203184       0.00163815      -0.00629635
H        0.79709065       2.65456146      -3.34885001      -0.00292538      -0.00488135       0.00066045
H       -0.70449716       2.25631872      -1.08583398      -0.00182528       0.00507642       0.00080366
H        2.32922719      -1.22108190      -1.03421229       0.00760584      -0.00226350      -0.00483342
H       -0.60443222      -2.52490100      -1.18147045       0.00210813       0.00622741       0.00134718
H       -2.51834477       0.06595961      -1.09680597       0.00723233      -0.00213500      -0.00144970
H       -2.02033903       1.60279507      -3.45570603       0.00022522      -0.00103888       0.00099087
