45
Properties=species:S:1:pos:R:3:forces:R:3 charge=-1 spin=1 energy=-242.28907775878906 free_energy=-242.28907775878906 stress="-7.733319762337487e-08 1.482381595252491e-08 -5.2433076547231394e-08 1.482381595252491e-08 -8.087197045369976e-08 9.134560485790644e-08 -5.2433076547231394e-08 9.134560485790644e-08 -1.7270785690470802e-07" pbc="F F F"
C        1.38700000      -0.37300000       1.55400000       0.21679942      -0.01583546       0.32097912
B        1.45118529       0.45033206       3.03367304       0.00312098      -0.00315625      -0.00374294
B       -0.08443520       1.32378032       3.08780701       0.00302759       0.00259344      -0.00163206
B       -1.38670297       0.10409914       3.05860453      -0.00185999       0.00165855      -0.00079127
B        0.12036282      -0.22298467       3.97471308       0.00083328       0.00264848       0.00146851
B        1.11029436      -1.27025413       3.02651488       0.00013286      -0.00081675      -0.00458240
C        0.23500000      -1.47500000       1.56400000      -0.08297405      -0.06530333       0.01394099
B        0.79089372       1.20193729       1.55361767       0.00188166      -0.00222522      -0.00269945
B       -0.99109933       1.02907705       1.59191643       0.00157356      -0.00000042      -0.00203939
B       -1.27358911      -0.74432587       1.48722128       0.00324340      -0.00317532       0.00239359
B       -0.62350656      -1.49075145       3.01361960       0.00085045      -0.00225537      -0.00614982
C        1.14300000       0.92400000      -1.55300000       0.10913338       0.04241642      -0.17877614
B        1.61875510       0.20187481      -3.00247460       0.00029027       0.00641872       0.00478966
B        0.67675668      -1.29204765      -3.05137095       0.00388448      -0.00046182       0.00226251
B       -1.04746216      -0.83642539      -3.08045008      -0.00189804      -0.00280309       0.00044179
B        0.14879497       0.15684783      -3.97256448       0.00186732      -0.00050061      -0.00238378
B        0.50580081       1.55597113      -3.02848185       0.00173794       0.00045175       0.00497370
C       -0.40000000       1.32300000      -1.56800000      -0.18590173       0.27449152      -0.21402684
B        1.34395189      -0.74195128      -1.50722433      -0.00054297       0.00358419       0.00354087
B       -0.30173499      -1.43933724      -1.58363201       0.00027202      -0.00082952       0.00319867
B       -1.40469779      -0.02331835      -1.53387256       0.00276992       0.00657359      -0.00160213
B       -1.12787134       0.92910379      -3.04693149      -0.00043596       0.00278274       0.00639990
Co       0.00000000       0.00000000       0.00000000      -0.06630468      -0.25027576       0.06475994
H        2.33609187      -0.62190173       1.07168726       0.00304258       0.00183267       0.00052226
H        2.50350602       0.83252514       3.44318162      -0.00072509      -0.00035541       0.00043434
H       -0.19139066       2.35917627       3.67147727       0.00095966       0.00272208      -0.00040784
H       -2.43241233       0.26287095       3.61233834      -0.00369753       0.00314058      -0.00147488
H        0.12571928      -0.24559786       5.16462496      -0.00206353       0.00104799       0.00427487
H        1.89526851      -2.10454661       3.33892388      -0.00184160       0.00063434       0.00239186
H        0.41049788      -2.41810282       1.03914626      -0.00088365       0.00216508      -0.00445309
H        1.45465753       2.09468437       1.11156037      -0.00155474      -0.00337491       0.00327472
H       -1.75181374       1.85162080       1.17040071       0.00047111       0.00404940      -0.00219980
H       -2.20441069      -1.33564021       1.02616036       0.00053818       0.00321923      -0.00094915
H       -1.10112993      -2.51306407       3.39830237      -0.00278750       0.00190948       0.00011957
H        1.84517592       1.59486712      -1.04981879       0.00546670      -0.00231717      -0.00104745
H        2.73582180       0.34964144      -3.39124399      -0.00269449       0.00061797      -0.00064148
H        1.08880766      -2.26381904      -3.60772814       0.00142357      -0.00110702      -0.00099327
H       -1.87376035      -1.47918805      -3.65408745      -0.00308891      -0.00474355      -0.00035466
H        0.17188284       0.16602802      -5.16233731      -0.00173801      -0.00047256      -0.00567956
H        0.80076295       2.66184950      -3.34440078      -0.00255438      -0.00084949      -0.00149882
H       -0.70762824       2.25125604      -1.07546747       0.00047246       0.00098802      -0.00107597
H        2.33616179      -1.21196059      -1.03345168      -0.00347114       0.00351869      -0.00395644
H       -0.58715890      -2.51470625      -1.14463449       0.00294221      -0.00292630       0.00135630
H       -2.52036030       0.06063845      -1.11125797       0.00257451      -0.00339878       0.00078874
H       -2.01621076       1.60962330      -3.45788355      -0.00229144      -0.00228123       0.00084671
