45
Properties=species:S:1:pos:R:3:forces:R:3 charge=-1 spin=1 energy=-242.3021697998047 free_energy=-242.3021697998047 stress="-8.050589528352248e-09 -2.3667441340080586e-08 1.718768771752366e-08 -2.3667441340080586e-08 3.02248395200877e-08 5.981318196290886e-08 1.718768771752366e-08 5.981318196290886e-08 6.51564491249701e-08" pbc="F F F"
C       -1.30075110      -0.70475499       1.59243643      -0.00481582       0.00469267       0.00937048
B       -0.77697961      -1.34971854       3.05096437      -0.00266925      -0.00252308       0.01199967
B        0.93213511      -0.91145660       3.11408035       0.00234985       0.00114217      -0.00664108
B        1.03253434       0.86974679       3.11505606      -0.00007884      -0.00148478      -0.01954944
B       -0.29094659       0.04588090       4.00480133       0.00352804       0.00115281      -0.00156698
B       -1.71988711       0.12642067       3.03459997      -0.00486342      -0.00576157       0.01816448
C       -1.20924696       0.89813770       1.59105070      -0.01464763      -0.00880781      -0.00214300
B        0.22999547      -1.38613288       1.52697181      -0.03841473      -0.00823021       0.00497681
B        1.40521233      -0.03850093       1.63600000      -0.05587211       0.00983652      -0.02807873
B        0.37876021       1.42480186       1.55455442       0.01429711      -0.02926135      -0.03650985
B       -0.61554112       1.49130044       3.04441558       0.00139055      -0.00223733       0.00417990
C        1.14199467       0.96410719      -1.58995914      -0.01477236       0.00731263      -0.00420588
B        1.62179122       0.24647494      -3.02923725       0.00086816       0.00264648      -0.00885729
B        0.69799564      -1.25454067      -3.08134611       0.00242178      -0.00034262       0.00673017
B       -1.03169136      -0.82248823      -3.11112804       0.00326695      -0.00373913       0.01871760
B        0.15783097       0.18409088      -4.00236361       0.00153551      -0.00570773       0.00117005
B        0.49873324       1.58748655      -3.05122154       0.00268710       0.00325550      -0.02117185
C       -0.41967883       1.36000260      -1.62016841       0.00616716       0.01685441      -0.01239914
B        1.32691461      -0.69438517      -1.48006498       0.00903371       0.04250236       0.00991618
B       -0.27500000      -1.43300000      -1.61500000      -0.11614331       0.15637589       0.07352704
B       -1.39691583      -0.00896031      -1.57763456       0.00689852      -0.02203926      -0.00001802
B       -1.13839158       0.94064252      -3.07337213      -0.00134590      -0.00520673      -0.00865614
Co       0.00000000       0.00000000       0.00000000       0.18286589      -0.10914484      -0.01722468
H       -2.13601200      -1.18344242       1.07429513      -0.01386825       0.02061735      -0.02377073
H       -1.26163034      -2.36396644       3.44721031       0.00284557      -0.01200414      -0.00067291
H        1.71740169      -1.60283737       3.68956481       0.00597803      -0.00494169      -0.00778071
H        1.88926046       1.46221560       3.69854079      -0.00182076       0.00171793      -0.01286530
H       -0.33358284       0.05097434       5.19422284       0.01074385      -0.00244387       0.00332026
H       -2.86571724       0.19398018       3.33807070      -0.00648865      -0.00654820       0.00647354
H       -1.99639168       1.46291723       1.08255693      -0.00667132      -0.02073915      -0.01506157
H        0.37439897      -2.49479953       1.10387834      -0.00852564      -0.01235076      -0.00838472
H        2.53776410      -0.10264998       1.25909778       0.00651026      -0.00880042      -0.02146334
H        0.64853127       2.49178856       1.08384798      -0.00254123      -0.00554607      -0.01149484
H       -0.99023376       2.55005770       3.44452095      -0.00286534       0.00303629      -0.00121446
H        1.84086803       1.62389162      -1.06924782      -0.02665658       0.02912652       0.02141725
H        2.73996088       0.39440233      -3.41441453       0.01188463      -0.00183604       0.01029521
H        1.13169163      -2.21587546      -3.64143509       0.01148739      -0.00666122       0.01416956
H       -1.84750928      -1.47140563      -3.69314356       0.00527658      -0.00380579       0.01000263
H        0.17785879       0.20968745      -5.19214213       0.00349751      -0.01513056      -0.00328130
H        0.78308179       2.69481496      -3.37145663       0.00507307       0.00482094      -0.00798060
H       -0.72947565       2.29267988      -1.13904649       0.01104459      -0.00324164       0.01403324
H        2.33722910      -1.15155487      -1.03540824       0.00865487       0.01018342       0.02449510
H       -0.56168752      -2.52067720      -1.21187164       0.00565069      -0.00480936       0.02073085
H       -2.50552233       0.04894315      -1.12836105       0.00136846       0.00256867       0.00646827
H       -2.03061817       1.60884382      -3.49657540      -0.00426517      -0.00449756      -0.00916582
