45
Properties=species:S:1:pos:R:3:forces:R:3 charge=-1 spin=1 energy=-54314.373543756185 free_energy=-54314.373543756185 stress="1.4393982887268066 0.08478011190891266 0.5119732022285461 0.08478011190891266 0.4946272671222687 -0.5671069025993347 0.5119732022285461 -0.5671069025993347 0.9478474855422974" pbc="F F F"
C        0.98049651       1.04953542       1.55400000      -0.15175699      -0.18730992       0.06098665
B        0.26150454       1.50727515       3.01537448      -0.00117227      -0.00263574       0.00369041
B       -1.22313500       0.54507976       3.09403803      -0.00108414      -0.00225599      -0.00048159
B       -0.75637898      -1.16215105       3.07325828      -0.00015155      -0.00078473       0.00332092
B        0.23457026       0.02195791       3.97876372      -0.00443960      -0.00305713      -0.00336127
B        1.64404224       0.40789760       2.96991108      -0.00230894      -0.00371389      -0.00101331
C        1.41267352      -0.48497787       1.56400000      -0.42966339       0.39718598      -0.31078491
B       -0.71209000       1.24689682       1.55297881      -0.00355757      -0.00035172      -0.00021567
B       -1.37742415      -0.41149883       1.57168027      -0.00146666       0.00288131       0.00715229
B        0.05018290      -1.48704562       1.50557299       0.00346305       0.00183980       0.00343746
B        1.00123456      -1.24278270       3.00700935       0.00016389       0.00177871       0.00122466
C        1.14300000       0.92400000      -1.55300000      -0.47853932      -0.33828279      -0.00576557
B        1.61151147       0.18166640      -2.99368231      -0.00230949      -0.00200341      -0.00349717
B        0.64130216      -1.29715015      -3.06935090      -0.00196625      -0.00089567      -0.00026815
B       -1.06511393      -0.83127858      -3.09309361      -0.00085428      -0.00085040      -0.00290472
B        0.13996396       0.15181532      -3.98045247      -0.00277485      -0.00639359       0.00408442
B        0.51317914       1.56549882      -2.97499521      -0.00277946      -0.00351757       0.00096624
C       -0.40000000       1.32300000      -1.56800000       0.22139414       0.20419681       0.25929558
B        1.30852113      -0.76650010      -1.51817293      -0.00087778      -0.00332645       0.00045576
B       -0.34718859      -1.43283127      -1.56645427       0.00173379      -0.00118816      -0.00856745
B       -1.42749609      -0.01686369      -1.54052760       0.00071520       0.00185671      -0.00259586
B       -1.13777396       0.92575840      -3.03352627       0.00240186      -0.00051124      -0.00187313
Co       0.00000000       0.00000000       0.00000000       0.88038129      -0.02957371      -0.00936942
H        1.65851438       1.74764000       1.08959182       0.00326533      -0.00363466      -0.00148269
H        0.43674037       2.60852959       3.41410991      -0.00228605      -0.00064058      -0.00113331
H       -2.18038461       0.95457428       3.65993381      -0.00038817      -0.00397619      -0.00315330
H       -1.37120975      -2.00743445       3.63094596      -0.00135105      -0.00304357      -0.00335528
H        0.31790757       0.03644994       5.16185119      -0.00249776      -0.00215913      -0.00720170
H        2.74444552       0.70633957       3.28475672      -0.00519924      -0.00085172      -0.00156975
H        2.32882975      -0.74489246       1.06284661       0.00186546       0.00188166      -0.00031529
H       -1.19465660       2.24258265       1.11402613       0.00271637      -0.00697218       0.00102281
H       -2.47164493      -0.71711312       1.23251775       0.00031643      -0.00223753      -0.00473920
H        0.13775608      -2.58466878       1.07435118       0.00296008       0.00080526      -0.00272568
H        1.69693425      -2.11576201       3.40014353      -0.00233571       0.00223756      -0.00403004
H        1.82512136       1.60522327      -1.07166719      -0.00344200       0.00311142       0.00128634
H        2.72034701       0.34358809      -3.37692162      -0.00041408      -0.00283077       0.00132070
H        1.06185319      -2.26319855      -3.61175445      -0.00402909      -0.00120320       0.00414404
H       -1.89801220      -1.44895651      -3.66590129      -0.00273584      -0.00160831       0.00459776
H        0.17500316       0.22700848      -5.16370517      -0.00231154      -0.00363096       0.00864593
H        0.79998304       2.66954617      -3.28763481      -0.00081946      -0.00612972       0.00153798
H       -0.67114218       2.25503229      -1.09981202       0.00251187       0.00113067       0.00107244
H        2.28797707      -1.26062882      -1.05805751      -0.00845485       0.00384346      -0.00166798
H       -0.65462554      -2.52384534      -1.22084177      -0.00211899       0.00237781       0.00533926
H       -2.53274366       0.08565668      -1.13157477      -0.00164037       0.00323388       0.00433410
H       -1.99507052       1.63199897      -3.44185132       0.00183806      -0.00279029       0.00415622
