45
Properties=species:S:1:pos:R:3:forces:R:3 charge=-1 spin=1 energy=-54314.47763921517 free_energy=-54314.47763921517 stress="0.6840229034423828 0.3652099668979645 -0.516421914100647 0.3652099668979645 1.1189508438110352 -1.1536331176757812 -0.516421914100647 -1.1536331176757812 1.3682745695114136" pbc="F F F"
C        0.94129616      -1.08483157       1.55400000      -0.18507777       0.03005618      -0.15909611
B        1.47700041      -0.42650291       3.01660462       0.00074800      -0.00041005       0.00000755
B        0.68587549       1.15414605       3.11251125       0.00182875      -0.00193010       0.00157112
B       -1.06295377       0.87784957       3.10123020       0.00105203      -0.00175786       0.00221458
B        0.00811840      -0.24444188       3.98802992       0.00027098      -0.00301949       0.00105479
B        0.23397516      -1.68199763       2.96504933       0.00051586      -0.00093774       0.00016533
C       -0.62998570      -1.35424075       1.56400000       0.20611264       0.57960093      -0.33517879
B        1.31589348       0.56834624       1.55796155      -0.00072623      -0.00140737       0.00270199
B       -0.25134847       1.41079755       1.60571932       0.00003956       0.00131187       0.00218562
B       -1.48164649       0.11817790       1.53962532      -0.00196164       0.00033370      -0.00127023
B       -1.33710400      -0.86473777       3.01628088       0.00181942      -0.00120673       0.00022458
C        1.14300000       0.92400000      -1.55300000      -0.32926548      -0.08107973       0.42901731
B        1.63553895       0.17789874      -2.97825694       0.00076543       0.00130820      -0.00033651
B        0.68772978      -1.31230902      -3.06118636       0.00228284       0.00295275      -0.00268676
B       -1.02394818      -0.86232130      -3.11151045       0.00155890       0.00242938      -0.00336129
B        0.17777157       0.12969404      -3.98180279       0.00068105       0.00419453      -0.00225674
B        0.52178696       1.55407105      -2.97487413       0.00046017       0.00188350      -0.00040782
C       -0.40000000       1.32300000      -1.56800000       0.01779939      -0.14709015       0.06187162
B        1.32694245      -0.75403211      -1.49635651      -0.00033838       0.00205082      -0.00384598
B       -0.31206949      -1.43857426      -1.58134354      -0.00022370      -0.00098225      -0.00369151
B       -1.41630961      -0.03882988      -1.58093822      -0.00203712       0.00019867       0.00049470
B       -1.11870332       0.90155465      -3.05234377       0.00202383       0.00200924      -0.00053431
Co       0.00000000       0.00000000       0.00000000       0.27086237      -0.39886811       0.02119485
H        1.55338602      -1.81670124       1.05472589      -0.00436741       0.00378518       0.00417482
H        2.55399360      -0.71916495       3.40985435      -0.00011843      -0.00223058       0.00029510
H        1.20450702       2.05668919       3.67896615       0.00152526      -0.00118530       0.00077999
H       -1.83628136       1.57649897       3.66586946       0.00065942       0.00005581       0.00125407
H        0.01947050      -0.33810795       5.17017383       0.00122738      -0.00066411       0.00139684
H        0.41529069      -2.80712675       3.27624046       0.00041185      -0.00120460      -0.00019705
H       -0.98394003      -2.23063314       1.04871647       0.00104467       0.00366943       0.00272313
H        2.35397783       0.94164263       1.11295137       0.00348394      -0.00193472       0.00379518
H       -0.43062980       2.53151419       1.24104379       0.00057747      -0.00195402       0.00380535
H       -2.58159122       0.17021597       1.10885804      -0.00123865      -0.00318690       0.00166553
H       -2.27783333      -1.46265264       3.41311554       0.00168823       0.00021395       0.00130584
H        1.80853736       1.59568612      -1.03806564      -0.00380739      -0.00246931      -0.00371066
H        2.74653898       0.34955912      -3.34754653      -0.00043337       0.00382246      -0.00165394
H        1.12720532      -2.27699695      -3.59097561       0.00131577       0.00285633      -0.00326290
H       -1.84742659      -1.49045195      -3.68783742       0.00062237       0.00113142      -0.00244918
H        0.22696637       0.20147475      -5.16440666       0.00063362       0.00316632      -0.00278091
H        0.80881811       2.65413448      -3.29546192       0.00041193       0.00249014       0.00096867
H       -0.67593927       2.25243593      -1.09831565       0.00007805      -0.00247932      -0.00146496
H        2.30364966      -1.22611912      -1.00901427       0.00472159       0.00131553      -0.00688244
H       -0.60583562      -2.52864357      -1.19861402       0.00124059       0.00122012      -0.00658466
H       -2.52712628       0.03419979      -1.18348935      -0.00041821       0.00307237      -0.00230264
H       -1.97838723       1.59244813      -3.48049773       0.00155037       0.00086953      -0.00091297
