45
Properties=species:S:1:pos:R:3:forces:R:3 charge=-1 spin=1 energy=-242.28878784179688 free_energy=-242.28878784179688 stress="-5.481218323666326e-08 8.33853253112693e-09 -4.94917280491336e-08 8.33853253112693e-09 -9.29278627381791e-08 5.975218186904385e-08 -4.94917280491336e-08 5.975218186904385e-08 -2.0782080412118376e-07" pbc="F F F"
C        1.32261265       0.55999446       1.55400000       0.13150981       0.14519869       0.30134404
B        0.86030701       1.25269814       3.02602130       0.00012010       0.00152001      -0.00065920
B       -0.88667467       0.99182943       3.08023166      -0.00074156       0.00206019       0.00123597
B       -1.15862723      -0.77181156       3.05669259      -0.00052465      -0.00061478       0.00078365
B        0.22454884      -0.09692455       3.97225343       0.00087088       0.00098446       0.00080328
B        1.65204470      -0.31261656       3.02598554      -0.00005326      -0.00013376      -0.00138369
C        1.09328320      -1.01763541       1.56400000       0.00474012      -0.09865180       0.07158430
B       -0.12131244       1.43112577       1.54791525       0.00120760      -0.00128314      -0.00270291
B       -1.41512663       0.19282467       1.57978708       0.00047532       0.00009996      -0.00306068
B       -0.54387404      -1.37133817       1.47875599      -0.00126793      -0.00058132      -0.00071993
B        0.42346982      -1.55564223       3.01505412       0.00110992       0.00017605      -0.00157018
C        1.14300000       0.92400000      -1.55300000       0.09462523      -0.02055234      -0.19772992
B        1.61738886       0.19552209      -2.99729804       0.00016866       0.00129794      -0.00015644
B        0.67355104      -1.29579399      -3.04478656       0.00055964      -0.00017142      -0.00272078
B       -1.05178061      -0.83741490      -3.07577987      -0.00151004       0.00032735      -0.00120762
B        0.14514924       0.14836690      -3.96968442      -0.00018233       0.00203957      -0.00134325
B        0.50445683       1.54983754      -3.02838238      -0.00033475       0.00080375       0.00099023
C       -0.40000000       1.32300000      -1.56800000      -0.15320265       0.32419026      -0.22824422
B        1.34111522      -0.74334302      -1.50462026       0.00116214       0.00122882       0.00045796
B       -0.30840221      -1.43722220      -1.57149054       0.00090955      -0.00078401       0.00201769
B       -1.40459030      -0.02225315      -1.51952045       0.00054559      -0.00153814       0.00100312
B       -1.13028158       0.92474810      -3.04468387      -0.00096618       0.00125962       0.00166631
Co       0.00000000       0.00000000       0.00000000      -0.06641052      -0.36119860       0.07053364
H        2.22356262       0.95155114       1.07187982      -0.00143522      -0.00127782       0.00264448
H        1.45288490       2.20221539       3.43556732      -0.00026853       0.00129506      -0.00029394
H       -1.61083642       1.74283199       3.65945439      -0.00171947       0.00168897       0.00073612
H       -2.08350875      -1.28979886       3.60570775      -0.00121059       0.00039026       0.00095709
H        0.24113486      -0.10834384       5.16210129      -0.00038451       0.00151199       0.00068338
H        2.78281556      -0.48635919       3.34284193       0.00006285       0.00129744       0.00054412
H        1.81880789      -1.65293025       1.04994686      -0.00380467       0.00477152       0.00215022
H       -0.16303854       2.53731502       1.09187910      -0.00031035      -0.00017128       0.00217990
H       -2.53057368       0.35838867       1.18268975      -0.00017844       0.00099345       0.00153096
H       -0.90926976      -2.41926330       1.03876731       0.00014733       0.00062389       0.00224918
H        0.67423992      -2.65459034       3.40226464      -0.00027267       0.00113487       0.00172077
H        1.85123582       1.59425812      -1.05685223      -0.00222889      -0.00124604      -0.00265853
H        2.73368569       0.34218338      -3.38754525      -0.00073510       0.00084285      -0.00176054
H        1.08501064      -2.27003382      -3.59703919      -0.00091313      -0.00052851      -0.00308948
H       -1.87893672      -1.48398292      -3.64380556      -0.00173864      -0.00024698      -0.00071474
H        0.16908429       0.15471705      -5.15937975      -0.00130466       0.00097226      -0.00135215
H        0.79834167       2.65425851      -3.34932120      -0.00027764       0.00101939      -0.00014675
H       -0.70119475       2.25565846      -1.08061218       0.00027888      -0.00450319      -0.00432891
H        2.32393960      -1.21831974      -1.01733102       0.00168137      -0.00162306      -0.00855669
H       -0.60631851      -2.52396010      -1.17569620       0.00153249      -0.00120439      -0.00409880
H       -2.51941048       0.06975183      -1.09850830       0.00147216      -0.00203589       0.00051904
H       -2.01970132       1.60257410      -3.45707430      -0.00120378       0.00061791       0.00016421
