45
Properties=species:S:1:pos:R:3:forces:R:3 charge=-1 spin=1 energy=-54314.56647969979 free_energy=-54314.56647969979 stress="0.04500732943415642 0.13138136267662048 0.015746671706438065 0.13138136267662048 0.11442568153142929 0.0029321524780243635 0.015746671706438065 0.0029321524780243635 1.074873924255371" pbc="F F F"
C        1.43511004      -0.28605811       1.49272414      -0.00973752       0.01623320       0.00611229
B        1.51415520       0.51407670       2.97946878      -0.00980884       0.00001003       0.00890144
B       -0.06070887       1.30618334       3.13765816      -0.00804948       0.00106018      -0.01085820
B       -1.30411146       0.04567835       3.11906157      -0.00128388      -0.00005443      -0.01438136
B        0.24932111      -0.24608971       3.95905948      -0.01081504      -0.00113162      -0.01746093
B        1.25413538      -1.23040818       2.87506654       0.00268576       0.00731875       0.00999596
C        0.32719833      -1.41743859       1.46784831       0.00516886       0.01056478      -0.00635849
B        0.74795398       1.25717499       1.56274901      -0.01553590      -0.00331700      -0.00490684
B       -0.99800000       0.99000000       1.63600000      -0.19793493       0.12082602      -0.04314030
B       -1.24109602      -0.77132339       1.52534731      -0.00966696       0.02996751      -0.02359610
B       -0.48903282      -1.51084429       2.95851949       0.00840912      -0.00168812       0.00489218
C        1.06659705       0.98142016      -1.48565236      -0.00100980      -0.01181616      -0.00650613
B        1.59248106       0.32605640      -2.95331155      -0.01093322      -0.00432267      -0.00948570
B        0.70738068      -1.20087834      -3.10276943      -0.00692036      -0.00558951       0.00843505
B       -1.02209114      -0.82338920      -3.11715939      -0.00325133      -0.00186914       0.01394203
B        0.13477184       0.25596508      -3.95603040      -0.01376148      -0.00427541       0.01743099
B        0.42199858       1.64775609      -2.89141497       0.00303591      -0.00487564      -0.00316566
C       -0.48185446       1.32574595      -1.49200459       0.00581512      -0.00274303       0.01234361
B        1.33086058      -0.69247132      -1.52762570      -0.01737120      -0.00187878       0.00101180
B       -0.27500000      -1.43300000      -1.61500000      -0.08442689       0.06476954       0.04216608
B       -1.43897267      -0.07902522      -1.54086243       0.00789877      -0.02686229       0.02844278
B       -1.19028573       0.92827690      -2.98779355       0.00387170       0.00609074      -0.00096440
Co       0.00000000       0.00000000       0.00000000       0.52207077      -0.14640805      -0.00786482
H        2.35531867      -0.49708034       0.97463477      -0.02716461      -0.00390236       0.00430074
H        2.57029166       0.90097668       3.35030241      -0.01592727       0.00617260       0.00777193
H       -0.16485944       2.32663975       3.73169113      -0.01761771      -0.01059777      -0.00191760
H       -2.32172326       0.13825091       3.72021416      -0.00214912      -0.01884038      -0.02422974
H        0.34710342      -0.35273523       5.13721045      -0.01318174      -0.01101021      -0.03132163
H        2.06828701      -2.04786422       3.13058072       0.00595474       0.00568252      -0.00626894
H        0.55790006      -2.32865660       0.94100167       0.00636487       0.00223142      -0.00267912
H        1.33238085       2.19999842       1.12940292       0.00080605      -0.01749741      -0.01221582
H       -1.81213820       1.79339820       1.30179548       0.00571843      -0.00605518       0.00213150
H       -2.15722334      -1.38008657       1.08886251       0.00019847      -0.00275270      -0.00632081
H       -0.87151751      -2.56509990       3.33440089       0.00491819      -0.01947111      -0.02302319
H        1.71467229       1.66945543      -0.96901307      -0.02001971      -0.01049437      -0.00382880
H        2.69540787       0.57067222      -3.30911384      -0.01333964      -0.01231484      -0.00940428
H        1.19131772      -2.11995430      -3.67381915      -0.02239508      -0.00184009      -0.00342748
H       -1.81535117      -1.46248899      -3.72348927      -0.01620622       0.01253879       0.02291669
H        0.17896307       0.37974295      -5.13566042      -0.02264571       0.00298104       0.02964508
H        0.66344646       2.77217880      -3.16387937       0.00258411      -0.00479879       0.00663067
H       -0.79522943       2.22658970      -0.99045542       0.00447723       0.00527293       0.00890706
H        2.32780984      -1.15906012      -1.07338446      -0.01116208       0.02286801       0.01062300
H       -0.52546659      -2.54101786      -1.25850082       0.00455729       0.00494369      -0.00626082
H       -2.54587098      -0.06108529      -1.12237769      -0.00204185       0.00074270       0.00828991
H       -2.07877404       1.59631796      -3.39197188      -0.01017796       0.01613230       0.02469672
