45
Properties=species:S:1:pos:R:3:forces:R:3 charge=-1 spin=1 energy=-54314.36673070687 free_energy=-54314.36673070687 stress="1.0963761806488037 -0.3676721453666687 0.21652357280254364 -0.3676721453666687 0.8041964173316956 -0.5298237204551697 0.21652357280254364 -0.5298237204551697 0.7410452961921692" pbc="F F F"
C        1.30226342       0.60581184       1.55400000       0.09244153      -0.20708711      -0.04861026
B        0.83063917       1.30936482       3.01640904      -0.00216229      -0.00058185       0.00332122
B       -0.90946556       1.00444411       3.10150231      -0.00058560       0.00005155      -0.00100990
B       -1.14527085      -0.75033633       3.08266244       0.00335307       0.00189448       0.00426034
B        0.23049747      -0.04742657       3.98162443       0.00642501      -0.00279463       0.00121556
B        1.67674498      -0.24185220       2.96829508       0.00352164      -0.00039086      -0.00227065
C        1.12813217      -0.97886047       1.56400000      -0.65794116       0.48292929      -0.22566284
B       -0.16684528       1.43979844       1.55424155      -0.00463454       0.00198191      -0.00044665
B       -1.42770446       0.18070964       1.58652523       0.00030997       0.00100011      -0.00553355
B       -0.53538396      -1.36904762       1.51681973       0.00558813      -0.00299305       0.00202989
B        0.44393423      -1.51200278       3.00823423       0.00256430      -0.00128282      -0.00030505
C        1.14300000       0.92400000      -1.55300000      -0.39995217       0.03408933       0.15702367
B        1.63544281       0.19987158      -2.99277800       0.00037744      -0.00026252      -0.00086435
B        0.69764936      -1.29595571      -3.07254987      -0.00265722       0.00042337      -0.00130648
B       -1.01816399      -0.86145830      -3.10111965      -0.00162542       0.00526411      -0.00274543
B        0.16831420       0.14360828      -3.98258969       0.00046708       0.00521209      -0.00218736
B        0.51150822       1.56395857      -2.97445834      -0.00223853       0.00387482      -0.00170661
C       -0.40000000       1.32300000      -1.56800000       0.04373200      -0.19449316       0.13072547
B        1.34058058      -0.74509412      -1.51622072      -0.00202974      -0.00595520       0.00124324
B       -0.29379006      -1.44763437      -1.57911234      -0.00108625      -0.00030119       0.00350902
B       -1.40679060      -0.05280368      -1.55363062       0.00104552       0.00742858       0.00186312
B       -1.12628147       0.89733117      -3.03797402      -0.00074631       0.00293025       0.00056003
Co       0.00000000       0.00000000       0.00000000       0.90680641      -0.14426048      -0.00602179
H        2.19402111       0.98046177       1.07606185      -0.00268132      -0.00075446       0.00137424
H        1.42325541       2.25621472       3.40919081       0.00161527      -0.00035742      -0.00117336
H       -1.63132132       1.75572543       3.66580359       0.00123225       0.00029082       0.00299314
H       -2.03870320      -1.29130546       3.64190684       0.00245154      -0.00132659       0.00323201
H        0.31591824      -0.06646106       5.16415022       0.00331969       0.00070462       0.00201229
H        2.80655602      -0.38707182       3.28406246       0.00386537       0.00001082      -0.00028374
H        1.87115507      -1.56896491       1.05806369      -0.00253743       0.00177781       0.00199028
H       -0.21522156       2.54213517       1.10486452      -0.00126946      -0.00052152       0.00157087
H       -2.55364914       0.33227561       1.24569902      -0.00014307      -0.00179749       0.00344360
H       -0.89832267      -2.41220751       1.09580022       0.00101077      -0.00187735       0.00029675
H        0.74113402      -2.58614184       3.40551343       0.00316042       0.00004627       0.00160458
H        1.80744718       1.61534365      -1.05981243      -0.00130820      -0.00249226      -0.00164566
H        2.74349797       0.38512049      -3.36647651       0.00183032       0.00279436      -0.00200385
H        1.13709929      -2.25650596      -3.60936707       0.00004999       0.00198428      -0.00506046
H       -1.83960003      -1.49381803      -3.67446258      -0.00119423       0.00274520      -0.00434632
H        0.20506286       0.21940975      -5.16527780       0.00018971       0.00529925      -0.00316744
H        0.78775883       2.66900015      -3.28973191       0.00153630       0.00534014       0.00129577
H       -0.67969886       2.25099146      -1.09899572       0.00020422      -0.00234107      -0.00044111
H        2.33040364      -1.20575194      -1.04067902      -0.00098562      -0.00132108      -0.00377866
H       -0.57261434      -2.54553833      -1.22989135      -0.00169115       0.00084317      -0.00410141
H       -2.51800599       0.01503721      -1.15489465      -0.00088641       0.00083418      -0.00103872
H       -1.99603299       1.58232264      -3.45517199       0.00125783       0.00344155       0.00014678
