45
Properties=species:S:1:pos:R:3:forces:R:3 charge=-1 spin=1 energy=-242.29083251953125 free_energy=-242.29083251953125 stress="-1.006584327001292e-08 4.955080346036311e-09 -3.402830373033794e-08 4.955080346036311e-09 2.561678513757215e-08 3.167962248085132e-08 -3.402830373033794e-08 3.167962248085132e-08 2.429427503614079e-08" pbc="F F F"
C        0.94795375       1.13655309       1.59542385       0.01572073       0.01280499       0.01931944
B        0.22204708       1.54181182       3.05041688      -0.01055546      -0.01679751       0.00685247
B       -1.20649782       0.50164547       3.11259795       0.01032424      -0.00343972       0.00077200
B       -0.63544427      -1.18879121       3.10551946      -0.00051369      -0.00026307      -0.00207333
B        0.28734995       0.05605870       4.00287536      -0.00388578      -0.00113227      -0.00130988
B        1.64796440       0.51488569       3.03806730      -0.01113466      -0.00259675       0.02175876
C        1.46129321      -0.38092865       1.58810216      -0.01373366      -0.03520456       0.02598217
B       -0.72449885       1.22192306       1.55734192      -0.01098735      -0.00464466       0.01759891
B       -1.32070651      -0.48149590       1.63600000       0.08200353       0.10684313      -0.18093918
B        0.16608641      -1.44177439       1.50549330       0.00513455      -0.00046530       0.02920947
B        1.12908126      -1.15439806       3.04271645      -0.00512455       0.00000184      -0.00662109
C        1.12874652       0.97241807      -1.58759428      -0.00436901       0.03266507      -0.01874763
B        1.62320728       0.25044504      -3.01780492      -0.01333593      -0.00362761      -0.01067429
B        0.70527242      -1.25748848      -3.07347927      -0.00515389       0.00857794      -0.00443636
B       -1.02493107      -0.82472098      -3.10587791      -0.00111778      -0.00027181       0.00275192
B        0.15767547       0.17983045      -4.00013721      -0.00525056       0.00017116      -0.00111033
B        0.49062541       1.59039019      -3.05620022      -0.01031655      -0.00378416      -0.00657431
C       -0.42539801       1.36530746      -1.61964504      -0.02864771      -0.02213565      -0.02957961
B        1.34553894      -0.68554410      -1.51573216      -0.01136544      -0.00870528      -0.02421688
B       -0.27500000      -1.43300000      -1.61500000      -0.03149593       0.21121368       0.14897099
B       -1.38008481      -0.01385489      -1.53837047      -0.00262988       0.00213248      -0.01646221
B       -1.13531230       0.94028653      -3.08208788      -0.00240082      -0.00209951       0.01389935
Co       0.00000000       0.00000000       0.00000000       0.00850962      -0.23597556       0.02898319
H        1.56037964       1.88931064       1.09265715       0.02328956       0.03013764       0.01340416
H        0.30313456       2.66090811       3.45357003      -0.00231191      -0.00398710       0.00289802
H       -2.19245931       0.85009141       3.68792511      -0.00260949      -0.00360212       0.00522621
H       -1.20975174      -2.06629962       3.67639021       0.00372132      -0.01193844      -0.00575744
H        0.31826973       0.06726628       5.19238335       0.00022923      -0.00540959       0.00277945
H        2.73614476       0.87820821       3.34618846      -0.00919086       0.00022990       0.00291941
H        2.38921798      -0.61633717       1.06238081       0.02170010       0.00095123       0.02374770
H       -1.27485789       2.18754713       1.11491910      -0.00060505       0.00913336      -0.02320511
H       -2.38753268      -0.83455040       1.22921677      -0.02078212       0.00600800      -0.00744626
H        0.32683511      -2.54617009       1.07889060      -0.00827103      -0.00589845      -0.01608479
H        1.86231070      -2.01028035       3.43231673      -0.00702065       0.00511371      -0.00694810
H        1.81989648       1.65006907      -1.07995961       0.02642389       0.02914936      -0.01868986
H        2.74080873       0.40870610      -3.40049029       0.00187668       0.00600799      -0.00389722
H        1.14216478      -2.22007273      -3.62711195       0.00321776      -0.00513843      -0.00709802
H       -1.84369249      -1.47740109      -3.67980809      -0.00666827      -0.00021324       0.00406682
H        0.18608602       0.18975147      -5.18972039       0.00063149      -0.00196347      -0.00259891
H        0.77741241       2.69670344      -3.37994367      -0.00750044      -0.00860086      -0.00374289
H       -0.74337480       2.28523545      -1.12070327      -0.00731163       0.00066598      -0.02209772
H        2.34108298      -1.14271998      -1.04061944       0.03217492      -0.00840210       0.00752216
H       -0.56011248      -2.50919361      -1.18596783       0.00580969      -0.03659497       0.01124218
H       -2.50509467       0.06042390      -1.13914379       0.00021960      -0.01641801       0.02441253
H       -2.03551408       1.59797214      -3.50561098       0.00330324      -0.01249729       0.00599445
