45
Properties=species:S:1:pos:R:3:forces:R:3 charge=-1 spin=1 energy=-242.28762817382812 free_energy=-242.28762817382812 stress="-6.63325252503455e-08 2.5509756085284607e-08 -2.7231450872022833e-08 2.5509756085284607e-08 -9.032554260102188e-08 1.0023121888025344e-07 -2.7231450872022833e-08 1.0023121888025344e-07 -1.4521376101583883e-07" pbc="F F F"
C        0.82274386      -1.17728099       1.55400000       0.17424899      -0.10036576       0.23407102
B        1.40688936      -0.59162035       3.03063617       0.00049486      -0.00000311      -0.00008638
B        0.78240451       1.06427346       3.09090860       0.00032510       0.00259605       0.00160880
B       -0.99823187       0.95875113       3.07413939       0.00110209       0.00010499       0.00035039
B       -0.04130695      -0.26145319       3.97892906       0.00061106       0.00084877       0.00156580
B        0.04533242      -1.69580820       3.02294555       0.00111412      -0.00000857       0.00041217
C       -0.76809128      -1.28097064       1.56400000      -0.08228113      -0.06052798      -0.00407994
B        1.36548244       0.42111279       1.55185216       0.00026378      -0.00134367      -0.00067419
B       -0.11995727       1.42122829       1.60236815       0.00030660       0.00233632       0.00032972
B       -1.46668632       0.24039230       1.50802751      -0.00019592       0.00242668       0.00191894
B       -1.42961342      -0.75601377       3.02232296       0.00087832      -0.00008970       0.00135945
C        1.14300000       0.92400000      -1.55300000       0.12645818      -0.00799224      -0.09336820
B        1.62543260       0.19320401      -2.99280395       0.00054344      -0.00008149      -0.00122490
B        0.67697588      -1.29961711      -3.03540470      -0.00057900      -0.00207394      -0.00299838
B       -1.04549036      -0.83744304      -3.08318210       0.00129099       0.00015099      -0.00143420
B        0.16237490       0.14805671      -3.97004176       0.00034869      -0.00054209      -0.00144381
B        0.51878259       1.55059451      -3.03083597       0.00107203       0.00010544      -0.00059009
C       -0.40000000       1.32300000      -1.56800000      -0.13935637       0.28665230      -0.21663815
B        1.33160370      -0.74637223      -1.48820906      -0.00065389       0.00009356      -0.00056024
B       -0.32202906      -1.43429599      -1.57702778      -0.00058863      -0.00197795      -0.00138636
B       -1.41549575      -0.01480082      -1.55036793      -0.00073424      -0.00296976      -0.00302584
B       -1.11757119       0.93030826      -3.05426970       0.00077340      -0.00024675      -0.00183952
Co       0.00000000       0.00000000       0.00000000      -0.10025720      -0.12214838       0.09314845
H        1.39412229      -1.95974051       1.04644964       0.00048158      -0.00039323       0.00348297
H        2.46406000      -0.96994687       3.43127325       0.00019565       0.00263708      -0.00166440
H        1.36830337       1.92587790       3.67308742      -0.00011070       0.00230058      -0.00120139
H       -1.69406381       1.74877301       3.63697807       0.00072488      -0.00247356      -0.00148067
H       -0.04736266      -0.28623482       5.16913784       0.00272981       0.00089106       0.00017452
H        0.11269806      -2.84136585       3.32793390       0.00167338       0.00103942       0.00136481
H       -1.23264714      -2.12005116       1.03876872       0.00026597       0.00085452      -0.00375524
H        2.43654884       0.68725786       1.09157247       0.00311748       0.00276868       0.00609666
H       -0.19596375       2.54276431       1.18905236      -0.00222960      -0.00014216      -0.00132176
H       -2.56914324       0.37709589       1.07136454      -0.00009713      -0.00096799       0.00521063
H       -2.44781518      -1.23946940       3.41077017       0.00161360      -0.00014669       0.00117536
H        1.84726999       1.58058452      -1.03419108      -0.00018248       0.00055030      -0.00160807
H        2.74650630       0.33176839      -3.37306814       0.00087389      -0.00163945       0.00119622
H        1.09291513      -2.27531619      -3.58222446      -0.00050820      -0.00152963       0.00012454
H       -1.86644447      -1.48213010      -3.66230267       0.00102186       0.00304762       0.00058007
H        0.19033944       0.15038188      -5.16012238       0.00253976      -0.00056335      -0.00034301
H        0.81531742       2.65549370      -3.34823458       0.00201279       0.00015584      -0.00111680
H       -0.70008974       2.25721951      -1.08298564      -0.00021807      -0.00097688       0.00209188
H        2.30569978      -1.21357064      -0.97798083       0.00424109      -0.00365706      -0.00777234
H       -0.62669682      -2.50682099      -1.14108475      -0.00502714       0.00155840      -0.00078616
H       -2.53774554       0.08308150      -1.15422090       0.00014813       0.00107697      -0.00466291
H       -2.00018150       1.61311564      -3.47360927       0.00154786       0.00066574      -0.00119960
