45
Properties=species:S:1:pos:R:3:forces:R:3 charge=-1 spin=1 energy=-242.2897491455078 free_energy=-242.2897491455078 stress="-4.9285532099929696e-08 8.890715719189757e-09 -5.2004264006200174e-08 8.890715719189757e-09 -9.484239882340262e-08 5.66006583824219e-08 -5.2004264006200174e-08 5.66006583824219e-08 -2.2031730395610793e-07" pbc="F F F"
C        1.20527717       0.78115616       1.55400000       0.11149222       0.15980512       0.30058938
B        0.62905790       1.38348462       3.02597157      -0.00251047      -0.00074171       0.00326678
B       -1.04567317       0.82341652       3.08096597      -0.00014988      -0.00073671      -0.00090317
B       -1.00741037      -0.96041198       3.05728424      -0.00115645       0.00217044       0.00083984
B        0.23735000      -0.05525949       3.97276914      -0.00154009       0.00086176       0.00061273
B        1.68035723      -0.02040840       3.02571570      -0.00336897       0.00051732       0.00331637
C        1.25338431      -0.81232861       1.56400000       0.01178262      -0.08938555       0.09594290
B       -0.36634560       1.38789384       1.54669395      -0.00172037       0.00274202       0.00154920
B       -1.42519365      -0.05656467       1.57665177       0.00027993       0.00046951       0.00275435
B       -0.29874238      -1.44425145       1.47964701       0.00197010      -0.00151631       0.00170959
B        0.68651876      -1.45751625       3.01500796      -0.00276500       0.00154865       0.00263983
C        1.14300000       0.92400000      -1.55300000       0.08805533      -0.01530299      -0.20813692
B        1.61633275       0.19664082      -2.99886152      -0.00181541      -0.00096241      -0.00451454
B        0.67276211      -1.29452418      -3.04823395      -0.00208968       0.00050564      -0.00133505
B       -1.05237034      -0.83694113      -3.07679222       0.00030041      -0.00013091      -0.00077833
B        0.14391226       0.14955186      -3.97096572      -0.00195291       0.00043269      -0.00093938
B        0.50341600       1.55013068      -3.02806031      -0.00266306      -0.00216863      -0.00280461
C       -0.40000000       1.32300000      -1.56800000      -0.15945256       0.31212288      -0.24339443
B        1.34171843      -0.74220003      -1.50721763       0.00266987      -0.00220046      -0.00147857
B       -0.30797982      -1.43518755      -1.56968871       0.00061798      -0.00011680      -0.00306872
B       -1.40350141      -0.02472695      -1.51898940      -0.00007564       0.00152680      -0.00152852
B       -1.13109969       0.92466192      -3.04382519       0.00019776      -0.00225908      -0.00139136
Co       0.00000000       0.00000000       0.00000000      -0.03778079      -0.37691417       0.06396680
H        2.02726780       1.32348861       1.07747465       0.00215157      -0.00066732       0.00492481
H        1.04757957       2.42174804       3.43475187      -0.00018904       0.00012073      -0.00040826
H       -1.89023203       1.43749938       3.65894037       0.00198785      -0.00173056      -0.00346726
H       -1.82855696      -1.63089334       3.60628026       0.00002147       0.00152008      -0.00051630
H        0.25589349      -0.06314713       5.16266659      -0.00001711       0.00065846      -0.00245625
H        2.82387614       0.00563643       3.34317269       0.00031978       0.00035196       0.00010213
H        2.07860368      -1.31397964       1.05380299      -0.00017453      -0.00085536       0.00452472
H       -0.60035047       2.47216177       1.09704534       0.00286858       0.00270741       0.00310083
H       -2.55408625      -0.08497802       1.18455797       0.00046965       0.00154400      -0.00213928
H       -0.47551319      -2.54095509       1.04349300      -0.00007842      -0.00358890      -0.00124884
H        1.12462431      -2.49533705       3.40397729       0.00024158       0.00077540       0.00068088
H        1.85182656       1.59676172      -1.06180911      -0.00001010       0.00185194      -0.00495174
H        2.73227422       0.34376607      -3.38955394      -0.00056291       0.00169479      -0.00163406
H        1.08343583      -2.26932352      -3.60041448      -0.00247000       0.00326183      -0.00012673
H       -1.88006966      -1.48350378      -3.64413203       0.00024760       0.00068153       0.00056302
H        0.16722016       0.15680349      -5.16073643      -0.00171383       0.00216376       0.00172484
H        0.79737577       2.65450865      -3.34897261      -0.00093792       0.00138265       0.00043696
H       -0.70380035       2.25624329      -1.08470464      -0.00150082      -0.00032640      -0.00284766
H        2.32812685      -1.22088985      -1.03182769       0.00366715      -0.00037234      -0.00877012
H       -0.60466414      -2.52520163      -1.18270527       0.00044130       0.00032706       0.00161735
H       -2.51783464       0.06653746      -1.09749649      -0.00260889      -0.00198501       0.00255529
H       -2.02034846       1.60280171      -3.45605504      -0.00047781       0.00021732       0.00142173
