45
Properties=species:S:1:pos:R:3:forces:R:3 charge=-1 spin=1 energy=-242.23263549804688 free_energy=-242.23263549804688 stress="-7.476357666291733e-08 3.967455697306832e-08 3.036373996678776e-08 3.967455697306832e-08 -6.534641983080292e-08 1.1459429849480784e-08 3.036373996678776e-08 1.1459429849480784e-08 -2.094968465371494e-07" pbc="F F F"
C       -0.90286267       1.11702148       1.55400000      -0.20735753       0.13654581       0.22854368
B       -1.45060413       0.47139376       3.01933086      -0.00011162      -0.00077348       0.00266951
B       -0.71409122      -1.13202497       3.06715779       0.00190958       0.00022770       0.00091489
B        1.05484389      -0.90445503       3.06063905      -0.00147836       0.00141516      -0.00189921
B        0.00992409       0.23239714       3.96955366       0.00158319       0.00047904      -0.00121727
B       -0.17206191       1.66596418       3.02127758       0.00260128      -0.00045396       0.00103033
C        0.67686425       1.33142960       1.56400000       0.08123291      -0.02306497       0.18115191
B       -1.33442246      -0.50977613       1.51772510       0.00001192       0.00010513      -0.00218149
B        0.21592632      -1.40280286       1.56033123      -0.00173657      -0.00266361       0.00635754
B        1.49272011      -0.13502136       1.52358315       0.00061828      -0.00200152       0.00485283
B        1.36716757       0.83288582       3.01967582      -0.00184179      -0.00013956      -0.00116327
C        1.14300000       0.92400000      -1.55300000       0.12548018      -0.01939398      -0.18844701
B        1.61245290       0.17388643      -2.98983832       0.00087366      -0.00431718      -0.00451922
B        0.66339020      -1.31496530      -3.01478516      -0.00267525      -0.00022560      -0.00107045
B       -1.05914951      -0.85639738      -3.05454685       0.00306275       0.00047901       0.00175492
B        0.14432817       0.11567815      -3.95767762      -0.00107867      -0.00167376       0.00231581
B        0.50756815       1.52793714      -3.03063834      -0.00300181      -0.00063966      -0.00415867
C       -0.40000000       1.32300000      -1.56800000      -0.18464550       0.21621031      -0.27882984
B        1.33325093      -0.74300476      -1.46542533      -0.00064257      -0.00285660       0.00293417
B       -0.32245111      -1.42775010      -1.52271367       0.00119288      -0.00273335      -0.00517018
B       -1.42767992      -0.01415017      -1.54133648      -0.00272751      -0.00334172      -0.00728710
B       -1.13155164       0.90808948      -3.03772291       0.00158813      -0.00319210      -0.00082770
Co       0.00000000       0.00000000       0.00000000       0.17857534      -0.29375404       0.05823359
H       -1.53168896       1.86935083       1.06764120      -0.00122893       0.00069216      -0.00285192
H       -2.53217724       0.77010461       3.42042827      -0.00223860       0.00018967      -0.00019470
H       -1.23946804      -2.04470709       3.62928642      -0.00037766       0.00016111      -0.00076386
H        1.79513963      -1.65481830       3.62070536      -0.00187226       0.00185455      -0.00178774
H        0.00968635       0.25006354       5.15914782      -0.00090739      -0.00011932      -0.00127898
H       -0.32149417       2.79966991       3.33996486      -0.00091073      -0.00032645       0.00007290
H        1.09142757       2.21765494       1.07456871       0.00140250       0.00450043      -0.00338033
H       -2.39545384      -0.84209956       1.07951981      -0.00283951       0.00120736      -0.00297089
H        0.35675248      -2.52548796       1.17197130      -0.00237842      -0.00162473       0.00133248
H        2.59591368      -0.19599631       1.07193998      -0.00067149       0.00046264      -0.00778612
H        2.33777289       1.39029748       3.42873435      -0.00171515      -0.00102606      -0.00063168
H        1.85641175       1.59209652      -1.06229752       0.00124162       0.00076978       0.00240841
H        2.72910334       0.30816828      -3.38273923       0.00478423      -0.00068017       0.00123245
H        1.07149092      -2.30172921      -3.54826876       0.00166781      -0.00058897       0.00345754
H       -1.88053253      -1.51163786      -3.62107610       0.00406848       0.00119351       0.00250489
H        0.16391760       0.11199745      -5.14738958       0.00250532      -0.00216642       0.00343415
H        0.80212168       2.62796172      -3.36584622       0.00218418       0.00026974      -0.00080055
H       -0.70215381       2.27211535      -1.11353534      -0.00068639       0.00406745       0.00339348
H        2.32880527      -1.20903904      -1.00067020       0.00299186       0.00045151       0.00508547
H       -0.60871548      -2.51277488      -1.10899603       0.00183832      -0.00173014       0.00036534
H       -2.53762799       0.07905189      -1.10856695      -0.00103145       0.00000011       0.00536816
H       -2.00846996       1.59177056      -3.46683394       0.00274067      -0.00179453      -0.00019632
