45
Properties=species:S:1:pos:R:3:forces:R:3 charge=-1 spin=1 energy=-242.31558227539062 free_energy=-242.31558227539062 stress="1.9344037482937892e-08 -1.3622475592001138e-08 9.243614762510788e-09 -1.3622475592001138e-08 5.563689597920529e-08 4.010675525023544e-08 9.243614762510788e-09 4.010675525023544e-08 6.618260073310012e-08" pbc="F F F"
C       -1.46874421      -0.17658742       1.59216647      -0.00988716       0.00593427       0.00694242
B       -1.21925902      -0.96881497       3.05053892       0.00134028      -0.00444286       0.01458308
B        0.53107100      -1.19059218       3.11414862       0.00322816      -0.00059637      -0.00017425
B        1.28023249       0.42856981       3.11554856      -0.00017291       0.00045259      -0.01288477
B       -0.25376558       0.14978970       4.00482323       0.00566845      -0.00132401       0.00121241
B       -1.55245863       0.75072031       3.03414553      -0.00236249      -0.00146834       0.01421163
C       -0.79344004       1.28058840       1.59098948      -0.00803471      -0.01433818      -0.00315040
B       -0.29567227      -1.37382275       1.52751891      -0.01585072       0.01453966      -0.02885423
B        1.29236024      -0.55309042       1.63600000      -0.06056824       0.02075376      -0.06434849
B        0.87682749       1.18630642       1.55555731      -0.00827767      -0.03032377      -0.03430381
B       -0.02337245       1.61326297       3.04433248       0.00125951      -0.00266411       0.00361883
C        1.14240005       0.96391821      -1.58988802      -0.00742868       0.01342562       0.00011855
B        1.62174877       0.24650645      -3.02886986       0.00170293      -0.00374087      -0.01393791
B        0.69794087      -1.25450847      -3.08143161       0.00167291      -0.00242998       0.00137616
B       -1.03176659      -0.82241943      -3.11157835       0.00168328      -0.00303240       0.01123613
B        0.15781680       0.18430001      -4.00237998       0.00011049      -0.00833251      -0.00193983
B        0.49877116       1.58741771      -3.05067221      -0.00284182       0.00114864      -0.01796050
C       -0.41981356       1.35994003      -1.61970878       0.00216825      -0.00200528      -0.00924909
B        1.32700085      -0.69543757      -1.48091443      -0.00791284       0.02779080       0.03694254
B       -0.27500000      -1.43300000      -1.61500000      -0.10345019       0.16474685       0.11378427
B       -1.39726211      -0.00846258      -1.57776980       0.01318181      -0.01237829       0.01037185
B       -1.13835565       0.94080860      -3.07319032      -0.00173827      -0.00520522      -0.00668335
Co       0.00000000       0.00000000       0.00000000       0.20196867      -0.15249148      -0.02403025
H       -2.42152622      -0.31476195       1.07502123       0.00119404       0.02406540      -0.01856166
H       -2.04323237      -1.73320766       3.44719633      -0.00090095      -0.00959906       0.00127774
H        1.00665014      -2.12229790       3.68975342       0.00307255      -0.00635391      -0.00652792
H        2.29489508       0.66397080       3.69887403      -0.00168158       0.00288515      -0.01166963
H       -0.29163750       0.17037324       5.19412901       0.00834266      -0.00605815       0.00210465
H       -2.59286275       1.23541659       3.33790840      -0.00599903      -0.00413437       0.00561762
H       -1.31738661       2.09543751       1.08281503      -0.00718446      -0.01249617      -0.00166145
H       -0.57031390      -2.45741003       1.10411411       0.00669682       0.00579457      -0.00939325
H        2.32190597      -1.02956759       1.25936559      -0.01089590       0.00238039      -0.00397449
H        1.52021570       2.07826449       1.08394474       0.00275582      -0.00920421       0.01140523
H        0.01812353       2.73539964       3.44456894      -0.00336101       0.00246906      -0.00258775
H        1.84164511       1.62287957      -1.06996004      -0.02927402       0.02760747       0.01532973
H        2.73962206       0.39445001      -3.41466232       0.01068255      -0.00115763       0.00766864
H        1.13135202      -2.21567536      -3.64180484       0.01189919      -0.00621472       0.01283647
H       -1.84765103      -1.47130698      -3.69340364       0.00521073      -0.00298826       0.00889955
H        0.17774660       0.21010672      -5.19203981       0.00402869      -0.01427766      -0.00254047
H        0.78294753       2.69470715      -3.37125136       0.00406786       0.00293508      -0.00725543
H       -0.72964040       2.29277004      -1.13924787       0.00439131      -0.00542939      -0.00229059
H        2.33731955      -1.15165321      -1.03602371      -0.01243077       0.00385037       0.01742106
H       -0.56177490      -2.52083614      -1.21216890       0.00244894       0.01234777       0.00784440
H       -2.50554959       0.04905035      -1.12820178       0.00288359      -0.00616588      -0.01406822
H       -2.03053175       1.60895226      -3.49634806      -0.00140609      -0.00427446      -0.00675556
