45
Properties=species:S:1:pos:R:3:forces:R:3 charge=-1 spin=1 energy=-242.28384399414062 free_energy=-242.28384399414062 stress="-6.200380653353932e-08 8.783727523109519e-09 -5.207136766216536e-08 8.783727523109519e-09 -9.24596150753132e-08 6.688757991923922e-08 -5.207136766216536e-08 6.688757991923922e-08 -1.8941621249268792e-07" pbc="F F F"
C        1.39976120       0.32181761       1.55400000       0.17046231       0.10800482       0.29623517
B        1.06702995       1.08257984       3.02607178      -0.00330987       0.00245764       0.00112434
B       -0.69944347       1.13041503       3.07939501      -0.00184658      -0.00030579       0.00233256
B       -1.27474339      -0.56014467       3.05517672      -0.00029409       0.00048077       0.00306787
B        0.20587154      -0.13695508       3.97129029      -0.00224632       0.00193045       0.00033170
B        1.57391166      -0.59753083       3.02545561      -0.00021488       0.00216554       0.00087555
C        0.89996324      -1.19202188       1.56400000       0.00676119      -0.10458958       0.03543153
B        0.12957773       1.43102854       1.54837886      -0.00028974      -0.00316620      -0.00351848
B       -1.36135305       0.43625352       1.58275368       0.00075415      -0.00205202      -0.00763302
B       -0.77226917      -1.25956764       1.47937962      -0.00514858       0.00258616      -0.00402845
B        0.14747427      -1.60813166       3.01329702      -0.00258280       0.00040686       0.00311896
C        1.14300000       0.92400000      -1.55300000       0.09476495       0.00421631      -0.18528038
B        1.61840824       0.19654318      -2.99574970       0.00044402      -0.00369134      -0.00168225
B        0.67541011      -1.29572751      -3.04186486      -0.00175408      -0.00045612      -0.00171603
B       -1.05114229      -0.83752360      -3.07446051       0.00041030      -0.00040920      -0.00335472
B        0.14624742       0.14956637      -3.96870092      -0.00058316      -0.00254809       0.00035675
B        0.50457205       1.55093534      -3.02790445       0.00042421      -0.00030188      -0.00104023
C       -0.40000000       1.32300000      -1.56800000      -0.14455467       0.33847189      -0.22309229
B        1.34142874      -0.74300196      -1.50128439      -0.00120869       0.00062430       0.00075355
B       -0.30903075      -1.43840616      -1.57337233      -0.00184944      -0.00030085       0.00721534
B       -1.40697097      -0.01762562      -1.52204724       0.00207782      -0.00623639       0.00560495
B       -1.13042425       0.92568748      -3.04490140      -0.00110108      -0.00183389      -0.00229262
Co       0.00000000       0.00000000       0.00000000      -0.10053398      -0.33407331       0.07251464
H        2.35399996       0.54871987       1.06819831      -0.00018924       0.00055056       0.00691068
H        1.81583793       1.91379108       3.43769038      -0.00115293       0.00171863      -0.00246394
H       -1.28004127       1.99550598       3.66149346      -0.00210512       0.00032479      -0.00104131
H       -2.27547761      -0.90821675       3.60556107       0.00042503      -0.00089849       0.00023134
H        0.21933410      -0.15214355       5.16129468      -0.00041049       0.00242638      -0.00147183
H        2.65719709      -0.96612395       3.34168728       0.00088367       0.00207642       0.00043830
H        1.50460095      -1.93943531       1.04309265      -0.00174717       0.00165598       0.00501593
H        0.28303999       2.52379565       1.08308364      -0.00029053      -0.00021440       0.00634377
H       -2.42899331       0.78859280       1.17449297       0.00144956      -0.00027987       0.00658344
H       -1.31019955      -2.22692146       1.02983282       0.00068605       0.00301345       0.00159191
H        0.20208354      -2.73434827       3.39988261       0.00155337       0.00067908       0.00152914
H        1.84991674       1.59505692      -1.05532155      -0.00457798      -0.00053821      -0.00067626
H        2.73436613       0.34423735      -3.38716502       0.00070506      -0.00181909       0.00050063
H        1.08750909      -2.26796150      -3.59765491      -0.00127007      -0.00060877       0.00220592
H       -1.87690570      -1.48447960      -3.64445852      -0.00127040       0.00090953       0.00075915
H        0.16985414       0.15639887      -5.15858085      -0.00022370      -0.00208886       0.00226411
H        0.79757269       2.65599905      -3.34761682       0.00140622       0.00028881      -0.00195867
H       -0.69910080       2.25694873      -1.08114461      -0.00268962      -0.00312626      -0.00413349
H        2.31705372      -1.21191210      -0.99241677      -0.00098008      -0.00331002      -0.00737421
H       -0.60824896      -2.51771448      -1.15652269      -0.00131189       0.00144407      -0.00814959
H       -2.52138746       0.07868806      -1.09927607       0.00221407      -0.00470779      -0.00191664
H       -2.02032862       1.60292350      -3.45753635       0.00031573       0.00112386      -0.00051302
