45
Properties=species:S:1:pos:R:3:forces:R:3 charge=-1 spin=1 energy=-54314.49502279061 free_energy=-54314.49502279061 stress="0.883825957775116 0.05756910517811775 -0.753542423248291 0.05756910517811775 0.7036001086235046 0.057895269244909286 -0.753542423248291 0.057895269244909286 1.3636361360549927" pbc="F F F"
C       -1.37094623      -0.42825745       1.55400000       0.16954185       0.07447533      -0.19100559
B       -0.97052880      -1.17467523       3.00898749      -0.00225135       0.00221149       0.00065365
B        0.78974624      -1.06742715       3.10397970       0.01302119       0.01789147       0.00066588
B        1.22331691       0.64918031       3.10305598       0.00100958       0.01137304      -0.01051632
B       -0.22808513       0.10270363       3.98806369      -0.00297568       0.00235414      -0.00699977
B       -1.63792534       0.46157864       2.96562520      -0.00595020      -0.00053294      -0.00146437
C       -0.98876159       1.11946439       1.56400000       0.13723159      -0.43160161      -0.24035108
B        0.01244582      -1.42740653       1.53810922       0.01057151       0.00786272       0.01024134
B        1.39598545      -0.31057969       1.59781247      -0.00591156       0.01513710      -0.01083048
B        0.68514874       1.32151816       1.54578228      -0.00993629       0.00448869      -0.00709788
B       -0.26896440       1.58781908       3.02194850      -0.00505027       0.00118914      -0.00351555
C        1.14300000       0.92400000      -1.55300000      -0.42998597      -0.34819305       0.27413952
B        1.60151766       0.15742116      -2.97283744       0.00525054       0.00250037       0.00038007
B        0.63384993      -1.31720107      -3.03859225      -0.01852437      -0.00359757      -0.00250277
B       -1.07217163      -0.84867953      -3.08753608      -0.00757373       0.00458669       0.01077578
B        0.13633376       0.12238736      -3.97158143       0.00601265       0.00162531       0.00717394
B        0.50900833       1.54830908      -2.97757546       0.00716486       0.00266344       0.00099775
C       -0.40000000       1.32300000      -1.56800000       0.15393683       0.13425785      -0.01531076
B        1.30012859      -0.77388890      -1.46940074      -0.01234464      -0.00524536      -0.01514693
B       -0.35248418      -1.43305150      -1.54821239      -0.01010083       0.00929525       0.00959431
B       -1.42814136      -0.01561637      -1.56233559       0.00055354       0.00952647       0.00874584
B       -1.14419719       0.91580030      -3.04206448       0.00421780       0.00110275       0.00541633
Co       0.00000000       0.00000000       0.00000000       0.03813424       0.37405932       0.16903859
H       -2.28568307      -0.70060987       1.05554000      -0.00461151      -0.00112872      -0.00222170
H       -1.65865936      -2.05336677       3.40095736       0.00050785      -0.00185966       0.00404998
H        1.41907033      -1.89930121       3.66558827      -0.00371887       0.01258887       0.00872200
H        2.17768934       1.07726146       3.66096092      -0.01135016       0.00907507       0.00582856
H       -0.31556645       0.12190372       5.17090255      -0.00899666       0.00759244      -0.00977690
H       -2.74362149       0.73981548       3.27760359      -0.00628569       0.00324621      -0.00293370
H       -1.66885956       1.79098681       1.06398399      -0.00115659       0.00830286      -0.00573273
H       -0.05044149      -2.53950415       1.13629032       0.01712092       0.01892654      -0.00148746
H        2.50124120      -0.57929492       1.26307849       0.01128742       0.01436342      -0.00811373
H        1.15221346       2.31076170       1.07660129       0.00227833       0.00467933      -0.01497382
H       -0.45257370       2.68876129       3.41829987      -0.00646662       0.00153454      -0.00734294
H        1.81509628       1.59260313      -1.04416674       0.00863871       0.00764219       0.00391622
H        2.71038331       0.30356254      -3.35765734       0.00877805      -0.00296400       0.00174433
H        1.05405931      -2.29049562      -3.56705030      -0.00176167       0.00566790      -0.00313318
H       -1.90596811      -1.47765132      -3.64840395       0.00520734       0.01117451      -0.00723987
H        0.17860192       0.18063645      -5.15561858       0.00775822       0.00636420       0.00961554
H        0.80079392       2.64495590      -3.30920493       0.00424189       0.00413876       0.00201621
H       -0.65884837       2.26600122      -1.11109881      -0.00699040       0.00502746       0.00363610
H        2.28339221      -1.26857225      -1.03292991      -0.02748705      -0.00099210       0.00855346
H       -0.66391376      -2.51934935      -1.18938726      -0.01919195      -0.00212383       0.00906296
H       -2.52739333       0.08952459      -1.11930953      -0.01185451       0.00026623       0.01145981
H       -1.99941342       1.62033756      -3.46133576       0.00801122       0.00104746       0.00126983
