45
Properties=species:S:1:pos:R:3:forces:R:3 charge=-1 spin=1 energy=-242.28103637695312 free_energy=-242.28103637695312 stress="-3.145864013731625e-08 -2.2613810823912672e-09 -7.804481505502281e-09 -2.2613810823912672e-09 4.211531390296841e-08 6.160522048048733e-08 -7.804481505502281e-09 6.160522048048733e-08 7.30841804852389e-08" pbc="F F F"
C        0.44707475      -1.41289557       1.58883802       0.02179578       0.00137520       0.00227681
B        1.18059209      -1.02109493       3.05186650       0.00306044       0.00259224      -0.00518135
B        1.07050245       0.74702996       3.11009057       0.00507723       0.00603433      -0.00054695
B       -0.65922768       1.17750477       3.10643089      -0.00904687       0.00074369      -0.00180187
B       -0.10086214      -0.27692288       4.00246263      -0.00775726       0.00169209      -0.00120860
B       -0.44507974      -1.67068234       3.03753067      -0.00394652       0.00214481       0.00803191
C       -1.10386468      -1.02247168       1.58374523      -0.02065393       0.00324732      -0.01242332
B        1.41738745      -0.04138603       1.55438790       0.00985754      -0.00172076       0.02105448
B        0.30112950       1.37310780       1.63600000       0.04952915      -0.08798906      -0.09082824
B       -1.31904006       0.64081205       1.53547855       0.01536199      -0.01732588      -0.00864975
B       -1.57674528      -0.33233186       3.04117279      -0.00504944       0.00000587       0.00261186
C        1.13165763       0.97246252      -1.58315658       0.01223588      -0.00370812       0.00584775
B        1.62361705       0.25345223      -3.02307946       0.00173595      -0.00327012       0.00630693
B        0.70275175      -1.25607221      -3.07270783       0.00583826      -0.00719826       0.00512772
B       -1.02653889      -0.82774368      -3.10577705      -0.00419527      -0.00152084      -0.00009114
B        0.16128934       0.18198008      -4.00054066      -0.00373453      -0.00032421       0.00131753
B        0.49802631       1.59127609      -3.05599404      -0.00810582       0.00045328      -0.01102234
C       -0.42227602       1.36013908      -1.61841438      -0.02480002       0.00669992       0.00909522
B        1.33907376      -0.68826779      -1.50087560       0.01030424      -0.00301185      -0.02254599
B       -0.27500000      -1.43300000      -1.61500000      -0.04889473       0.16553271       0.08024806
B       -1.39488471      -0.01415026      -1.57313083       0.01496336       0.00584617       0.00688566
B       -1.13388077       0.94160169      -3.07871444      -0.00346055      -0.00353517      -0.00823393
Co       0.00000000       0.00000000       0.00000000       0.02672633      -0.08202562       0.01181131
H        0.75487740      -2.31927793       1.05881248      -0.00305656       0.00664655       0.02346863
H        2.08860445      -1.68418208       3.44928252      -0.00490285      -0.00241479       0.00009464
H        1.89729013       1.39086865       3.68271226      -0.00689515       0.00170533       0.00172374
H       -1.08802340       2.13115198       3.68350171      -0.00230866      -0.00481191      -0.00683063
H       -0.11028005      -0.30687638       5.19316303      -0.00268195       0.00358624      -0.00675702
H       -0.72422513      -2.78323532       3.34468936      -0.00387672      -0.00701723      -0.00552210
H       -1.80045342      -1.68008684       1.05590354       0.00584072      -0.00584007      -0.00364725
H        2.53342056      -0.11090433       1.13550734       0.01484110       0.00288281      -0.01966859
H        0.58247337       2.46380185       1.23132616       0.00143536       0.01551050      -0.00604763
H       -2.32152870       1.09752617       1.07447451      -0.02066026      -0.00273756      -0.00213143
H       -2.69017152      -0.49653486       3.43521770      -0.00381541      -0.00261280      -0.00732332
H        1.81989667       1.63775990      -1.05275104      -0.01196200       0.00016004      -0.01889095
H        2.74394786       0.40061842      -3.40371754       0.00040632       0.01186789       0.00832269
H        1.14113014      -2.21897219      -3.62645083       0.00185883       0.00246884       0.00410240
H       -1.84440800      -1.47825044      -3.68380015       0.00839359      -0.00021237       0.00290120
H        0.18202663       0.19356864      -5.19131662       0.00478537      -0.00586885       0.00621268
H        0.78433829       2.69740721      -3.37940121      -0.00576612       0.00718454       0.00547025
H       -0.73907738       2.27955022      -1.11685202      -0.00017253       0.00207610      -0.00608771
H        2.34900884      -1.13846824      -1.05106283       0.01020195      -0.00068543       0.02697979
H       -0.55539916      -2.51327306      -1.18408842      -0.00245625      -0.01074951       0.00930510
H       -2.50516622       0.05430177      -1.13738560      -0.01551862       0.00723683      -0.00174540
H       -2.03141641       1.60317675      -3.50165690      -0.00053184      -0.00311287      -0.00201117
